system
 1.0000000
      4.552418000000      0.000000000000      0.000000000000
      0.000000000000     26.448880000000      0.000000000000
      0.000000000000      0.000000000000     30.000000000000
P  
 32
Direct
      0.913102988015      0.093750000000      0.464747771609
      0.913102988015      0.218750000000      0.464747771609
      0.913102988015      0.343750000000      0.464747771609
      0.913102988015      0.468750000000      0.464747771609
      0.913102988015      0.593750000000      0.464747771609
      0.913102988015      0.718750000000      0.464747771609
      0.913102988015      0.843750000000      0.464747771609
      0.913102988015      0.968750000000      0.464747771609
      0.586897011983      0.031250000000      0.464747771609
      0.586897011983      0.156250000000      0.464747771609
      0.586897011983      0.281250000000      0.464747771609
      0.586897011983      0.406250000000      0.464747771609
      0.586897011983      0.531250000000      0.464747771609
      0.586897011983      0.656250000000      0.464747771609
      0.586897011983      0.781250000000      0.464747771609
      0.586897011983      0.906250000000      0.464747771609
      0.086897011985      0.093750000000      0.535252228391
      0.086897011985      0.218750000000      0.535252228391
      0.086897011985      0.343750000000      0.535252228391
      0.086897011985      0.468750000000      0.535252228391
      0.086897011985      0.593750000000      0.535252228391
      0.086897011985      0.718750000000      0.535252228391
      0.086897011985      0.843750000000      0.535252228391
      0.086897011985      0.968750000000      0.535252228391
      0.413102988017      0.031250000000      0.535252228391
      0.413102988017      0.156250000000      0.535252228391
      0.413102988017      0.281250000000      0.535252228391
      0.413102988017      0.406250000000      0.535252228391
      0.413102988017      0.531250000000      0.535252228391
      0.413102988017      0.656250000000      0.535252228391
      0.413102988017      0.781250000000      0.535252228391
      0.413102988017      0.906250000000      0.535252228391
