bending struct
 1.0000000
      4.552418000000      0.000000000000      0.000000000000
      0.000000000000     26.355779942400      0.000000000000
      0.000000000000      0.000000000000     30.000000000000
P  
 32
Direct
      0.913102988015      0.097461688677      0.474157728940
      0.913102988015      0.219585821745      0.481101734962
      0.913102988015      0.341342278520      0.478668445101
      0.913102988015      0.464190003958      0.468227531467
      0.913102988015      0.589538311323      0.455682279649
      0.913102988015      0.717714178255      0.448412984697
      0.913102988015      0.846657721480      0.450981915128
      0.913102988015      0.973509996042      0.461745063534
      0.586897011983      0.035809996042      0.468227531467
      0.586897011983      0.158657721480      0.478668445101
      0.586897011983      0.280414178255      0.481101734962
      0.586897011983      0.402538311323      0.474157728940
      0.586897011983      0.526490003958      0.461745063534
      0.586897011983      0.653342278520      0.450981915128
      0.586897011983      0.782285821745      0.448412984697
      0.586897011983      0.910461688677      0.455682279649
      0.086897011985      0.089538311323      0.544317720351
      0.086897011985      0.217714178255      0.551587015303
      0.086897011985      0.346657721480      0.549018084872
      0.086897011985      0.473509996042      0.538254936466
      0.086897011985      0.597461688677      0.525842271060
      0.086897011985      0.719585821745      0.518898265038
      0.086897011985      0.841342278520      0.521331554899
      0.086897011985      0.964190003958      0.531772468533
      0.413102988017      0.026490003958      0.538254936466
      0.413102988017      0.153342278520      0.549018084872
      0.413102988017      0.282285821745      0.551587015303
      0.413102988017      0.410461688677      0.544317720351
      0.413102988017      0.535809996042      0.531772468533
      0.413102988017      0.658657721480      0.521331554899
      0.413102988017      0.780414178255      0.518898265038
      0.413102988017      0.902538311323      0.525842271060
