slab
 1.0000000
     -2.733099421887      2.733099421887      0.000000000000
     -2.733099421887      0.000000000000      2.733099421887
     27.945601915117     27.945601915117     27.945601915117
Si 
 18
Direct
     0.113716766647501855     0.772566466704996291     0.160029645190809006
     0.780383433314168595     0.439233133371662809     0.290430578174301790
     0.447050099980835336     0.105899800038329772     0.225230111682555439
     0.113716766647501744     0.772566466704996735     0.355631044666048224
     0.780383433314168373     0.439233133371662809     0.486031977649541036
     0.447050099980835114     0.105899800038329328     0.420831511157794658
     0.113716766647501299     0.772566466704996735     0.551232444141287470
     0.780383433314168373     0.439233133371662809     0.681633377124780226
     0.447050099980834781     0.105899800038329772     0.616432910633033848
     0.780383433314168373     0.439233133371663254     0.143729528567872411
     0.113716766647501855     0.772566466704996291     0.208929995059618845
     0.780383433314168373     0.439233133371663254     0.339330928043111657
     0.447050099980835336     0.105899800038329328     0.274130461551365223
     0.113716766647501411     0.772566466704996735     0.404531394534858091
     0.780383433314168595     0.439233133371662809     0.534932327518350959
     0.447050099980835225     0.105899800038329328     0.469731861026604525
     0.113716766647502077     0.772566466704996291     0.600132794010097226
     0.447050099980835003     0.105899800038329328     0.665333260501843604
