&CONTROL
calculation =  'scf'
restart_mode =  'from_scratch'
outdir = './tmp/'
pseudo_dir =  '/home/zsh/pseudo/pbe'
prefix = 'pw'
/
&SYSTEM
ibrav=2
celldm(1) =      10.329618757480
nat =   2
ntyp =  1
ecutwfc =  100
ecutrho =  500
occupations = 'smearing'
smearing ='gaussian'
degauss = 0.001
/
&ELECTRONS
conv_thr=1.d-8
/
&CELL
cell_dofree='2Dxy'
press_conv_thr=1.d-1
/
ATOMIC_POSITIONS crystal
Si    0.25000000000000     0.25000000000000     0.25000000000000
Si    0.50000000000000     0.50000000000000     0.50000000000000
K_POINTS automatic
 16  16  16  0 0 0
