system
 1.0000000
     43.551927626685      0.000000000000      0.000000000000
      0.000000000000     36.955036030290      0.000000000000
      0.000000000000      0.000000000000      2.514471713899
C  
720
Direct
      0.066666666667      0.111111111111      0.250000000000
      0.066666666667      0.277777777778      0.250000000000
      0.066666666667      0.444444444444      0.250000000000
      0.066666666667      0.611111111111      0.250000000000
      0.066666666667      0.777777777778      0.250000000000
      0.066666666667      0.944444444444      0.250000000000
      0.166666666667      0.111111111111      0.250000000000
      0.166666666667      0.277777777778      0.250000000000
      0.166666666667      0.444444444444      0.250000000000
      0.166666666667      0.611111111111      0.250000000000
      0.166666666667      0.777777777778      0.250000000000
      0.166666666667      0.944444444444      0.250000000000
      0.266666666667      0.111111111111      0.250000000000
      0.266666666667      0.277777777778      0.250000000000
      0.266666666667      0.444444444444      0.250000000000
      0.266666666667      0.611111111111      0.250000000000
      0.266666666667      0.777777777778      0.250000000000
      0.266666666667      0.944444444444      0.250000000000
      0.366666666667      0.111111111111      0.250000000000
      0.366666666667      0.277777777778      0.250000000000
      0.366666666667      0.444444444444      0.250000000000
      0.366666666667      0.611111111111      0.250000000000
      0.366666666667      0.777777777778      0.250000000000
      0.366666666667      0.944444444444      0.250000000000
      0.466666666667      0.111111111111      0.250000000000
      0.466666666667      0.277777777778      0.250000000000
      0.466666666667      0.444444444444      0.250000000000
      0.466666666667      0.611111111111      0.250000000000
      0.466666666667      0.777777777778      0.250000000000
      0.466666666667      0.944444444444      0.250000000000
      0.566666666667      0.111111111111      0.250000000000
      0.566666666667      0.277777777778      0.250000000000
      0.566666666667      0.444444444444      0.250000000000
      0.566666666667      0.611111111111      0.250000000000
      0.566666666667      0.777777777778      0.250000000000
      0.566666666667      0.944444444444      0.250000000000
      0.666666666667      0.111111111111      0.250000000000
      0.666666666667      0.277777777778      0.250000000000
      0.666666666667      0.444444444444      0.250000000000
      0.666666666667      0.611111111111      0.250000000000
      0.666666666667      0.777777777778      0.250000000000
      0.666666666667      0.944444444444      0.250000000000
      0.766666666667      0.111111111111      0.250000000000
      0.766666666667      0.277777777778      0.250000000000
      0.766666666667      0.444444444444      0.250000000000
      0.766666666667      0.611111111111      0.250000000000
      0.766666666667      0.777777777778      0.250000000000
      0.766666666667      0.944444444444      0.250000000000
      0.866666666667      0.111111111111      0.250000000000
      0.866666666667      0.277777777778      0.250000000000
      0.866666666667      0.444444444444      0.250000000000
      0.866666666667      0.611111111111      0.250000000000
      0.866666666667      0.777777777778      0.250000000000
      0.866666666667      0.944444444444      0.250000000000
      0.966666666667      0.111111111111      0.250000000000
      0.966666666667      0.277777777778      0.250000000000
      0.966666666667      0.444444444444      0.250000000000
      0.966666666667      0.611111111111      0.250000000000
      0.966666666667      0.777777777778      0.250000000000
      0.966666666667      0.944444444444      0.250000000000
      0.000000000000      0.000000000000      0.250000000000
      0.000000000000      0.166666666667      0.250000000000
      0.000000000000      0.333333333333      0.250000000000
      0.000000000000      0.500000000000      0.250000000000
      0.000000000000      0.666666666667      0.250000000000
      0.000000000000      0.833333333333      0.250000000000
      0.100000000000      0.000000000000      0.250000000000
      0.100000000000      0.166666666667      0.250000000000
      0.100000000000      0.333333333333      0.250000000000
      0.100000000000      0.500000000000      0.250000000000
      0.100000000000      0.666666666667      0.250000000000
      0.100000000000      0.833333333333      0.250000000000
      0.200000000000      0.000000000000      0.250000000000
      0.200000000000      0.166666666667      0.250000000000
      0.200000000000      0.333333333333      0.250000000000
      0.200000000000      0.500000000000      0.250000000000
      0.200000000000      0.666666666667      0.250000000000
      0.200000000000      0.833333333333      0.250000000000
      0.300000000000      0.000000000000      0.250000000000
      0.300000000000      0.166666666667      0.250000000000
      0.300000000000      0.333333333333      0.250000000000
      0.300000000000      0.500000000000      0.250000000000
      0.300000000000      0.666666666667      0.250000000000
      0.300000000000      0.833333333333      0.250000000000
      0.400000000000      0.000000000000      0.250000000000
      0.400000000000      0.166666666667      0.250000000000
      0.400000000000      0.333333333333      0.250000000000
      0.400000000000      0.500000000000      0.250000000000
      0.400000000000      0.666666666667      0.250000000000
      0.400000000000      0.833333333333      0.250000000000
      0.500000000000      0.000000000000      0.250000000000
      0.500000000000      0.166666666667      0.250000000000
      0.500000000000      0.333333333333      0.250000000000
      0.500000000000      0.500000000000      0.250000000000
      0.500000000000      0.666666666667      0.250000000000
      0.500000000000      0.833333333333      0.250000000000
      0.600000000000      0.000000000000      0.250000000000
      0.600000000000      0.166666666667      0.250000000000
      0.600000000000      0.333333333333      0.250000000000
      0.600000000000      0.500000000000      0.250000000000
      0.600000000000      0.666666666667      0.250000000000
      0.600000000000      0.833333333333      0.250000000000
      0.700000000000      0.000000000000      0.250000000000
      0.700000000000      0.166666666667      0.250000000000
      0.700000000000      0.333333333333      0.250000000000
      0.700000000000      0.500000000000      0.250000000000
      0.700000000000      0.666666666667      0.250000000000
      0.700000000000      0.833333333333      0.250000000000
      0.800000000000      0.000000000000      0.250000000000
      0.800000000000      0.166666666667      0.250000000000
      0.800000000000      0.333333333333      0.250000000000
      0.800000000000      0.500000000000      0.250000000000
      0.800000000000      0.666666666667      0.250000000000
      0.800000000000      0.833333333333      0.250000000000
      0.900000000000      0.000000000000      0.250000000000
      0.900000000000      0.166666666667      0.250000000000
      0.900000000000      0.333333333333      0.250000000000
      0.900000000000      0.500000000000      0.250000000000
      0.900000000000      0.666666666667      0.250000000000
      0.900000000000      0.833333333333      0.250000000000
      0.050000000000      0.000000000000      0.750000000000
      0.050000000000      0.166666666667      0.750000000000
      0.050000000000      0.333333333333      0.750000000000
      0.050000000000      0.500000000000      0.750000000000
      0.050000000000      0.666666666667      0.750000000000
      0.050000000000      0.833333333333      0.750000000000
      0.150000000000      0.000000000000      0.750000000000
      0.150000000000      0.166666666667      0.750000000000
      0.150000000000      0.333333333333      0.750000000000
      0.150000000000      0.500000000000      0.750000000000
      0.150000000000      0.666666666667      0.750000000000
      0.150000000000      0.833333333333      0.750000000000
      0.250000000000      0.000000000000      0.750000000000
      0.250000000000      0.166666666667      0.750000000000
      0.250000000000      0.333333333333      0.750000000000
      0.250000000000      0.500000000000      0.750000000000
      0.250000000000      0.666666666667      0.750000000000
      0.250000000000      0.833333333333      0.750000000000
      0.350000000000      0.000000000000      0.750000000000
      0.350000000000      0.166666666667      0.750000000000
      0.350000000000      0.333333333333      0.750000000000
      0.350000000000      0.500000000000      0.750000000000
      0.350000000000      0.666666666667      0.750000000000
      0.350000000000      0.833333333333      0.750000000000
      0.450000000000      0.000000000000      0.750000000000
      0.450000000000      0.166666666667      0.750000000000
      0.450000000000      0.333333333333      0.750000000000
      0.450000000000      0.500000000000      0.750000000000
      0.450000000000      0.666666666667      0.750000000000
      0.450000000000      0.833333333333      0.750000000000
      0.550000000000      0.000000000000      0.750000000000
      0.550000000000      0.166666666667      0.750000000000
      0.550000000000      0.333333333333      0.750000000000
      0.550000000000      0.500000000000      0.750000000000
      0.550000000000      0.666666666667      0.750000000000
      0.550000000000      0.833333333333      0.750000000000
      0.650000000000      0.000000000000      0.750000000000
      0.650000000000      0.166666666667      0.750000000000
      0.650000000000      0.333333333333      0.750000000000
      0.650000000000      0.500000000000      0.750000000000
      0.650000000000      0.666666666667      0.750000000000
      0.650000000000      0.833333333333      0.750000000000
      0.750000000000      0.000000000000      0.750000000000
      0.750000000000      0.166666666667      0.750000000000
      0.750000000000      0.333333333333      0.750000000000
      0.750000000000      0.500000000000      0.750000000000
      0.750000000000      0.666666666667      0.750000000000
      0.750000000000      0.833333333333      0.750000000000
      0.850000000000      0.000000000000      0.750000000000
      0.850000000000      0.166666666667      0.750000000000
      0.850000000000      0.333333333333      0.750000000000
      0.850000000000      0.500000000000      0.750000000000
      0.850000000000      0.666666666667      0.750000000000
      0.850000000000      0.833333333333      0.750000000000
      0.950000000000      0.000000000000      0.750000000000
      0.950000000000      0.166666666667      0.750000000000
      0.950000000000      0.333333333333      0.750000000000
      0.950000000000      0.500000000000      0.750000000000
      0.950000000000      0.666666666667      0.750000000000
      0.950000000000      0.833333333333      0.750000000000
      0.033333333333      0.055555555555      0.250000000000
      0.033333333333      0.222222222222      0.250000000000
      0.033333333333      0.388888888889      0.250000000000
      0.033333333333      0.555555555555      0.250000000000
      0.033333333333      0.722222222222      0.250000000000
      0.033333333333      0.888888888889      0.250000000000
      0.133333333333      0.055555555555      0.250000000000
      0.133333333333      0.222222222222      0.250000000000
      0.133333333333      0.388888888889      0.250000000000
      0.133333333333      0.555555555555      0.250000000000
      0.133333333333      0.722222222222      0.250000000000
      0.133333333333      0.888888888889      0.250000000000
      0.233333333333      0.055555555555      0.250000000000
      0.233333333333      0.222222222222      0.250000000000
      0.233333333333      0.388888888889      0.250000000000
      0.233333333333      0.555555555555      0.250000000000
      0.233333333333      0.722222222222      0.250000000000
      0.233333333333      0.888888888889      0.250000000000
      0.333333333333      0.055555555555      0.250000000000
      0.333333333333      0.222222222222      0.250000000000
      0.333333333333      0.388888888889      0.250000000000
      0.333333333333      0.555555555555      0.250000000000
      0.333333333333      0.722222222222      0.250000000000
      0.333333333333      0.888888888889      0.250000000000
      0.433333333333      0.055555555555      0.250000000000
      0.433333333333      0.222222222222      0.250000000000
      0.433333333333      0.388888888889      0.250000000000
      0.433333333333      0.555555555555      0.250000000000
      0.433333333333      0.722222222222      0.250000000000
      0.433333333333      0.888888888889      0.250000000000
      0.533333333333      0.055555555555      0.250000000000
      0.533333333333      0.222222222222      0.250000000000
      0.533333333333      0.388888888889      0.250000000000
      0.533333333333      0.555555555555      0.250000000000
      0.533333333333      0.722222222222      0.250000000000
      0.533333333333      0.888888888889      0.250000000000
      0.633333333333      0.055555555555      0.250000000000
      0.633333333333      0.222222222222      0.250000000000
      0.633333333333      0.388888888889      0.250000000000
      0.633333333333      0.555555555555      0.250000000000
      0.633333333333      0.722222222222      0.250000000000
      0.633333333333      0.888888888889      0.250000000000
      0.733333333333      0.055555555555      0.250000000000
      0.733333333333      0.222222222222      0.250000000000
      0.733333333333      0.388888888889      0.250000000000
      0.733333333333      0.555555555555      0.250000000000
      0.733333333333      0.722222222222      0.250000000000
      0.733333333333      0.888888888889      0.250000000000
      0.833333333333      0.055555555555      0.250000000000
      0.833333333333      0.222222222222      0.250000000000
      0.833333333333      0.388888888889      0.250000000000
      0.833333333333      0.555555555555      0.250000000000
      0.833333333333      0.722222222222      0.250000000000
      0.833333333333      0.888888888889      0.250000000000
      0.933333333333      0.055555555555      0.250000000000
      0.933333333333      0.222222222222      0.250000000000
      0.933333333333      0.388888888889      0.250000000000
      0.933333333333      0.555555555555      0.250000000000
      0.933333333333      0.722222222222      0.250000000000
      0.933333333333      0.888888888889      0.250000000000
      0.083333333333      0.055555555555      0.750000000000
      0.083333333333      0.222222222222      0.750000000000
      0.083333333333      0.388888888889      0.750000000000
      0.083333333333      0.555555555555      0.750000000000
      0.083333333333      0.722222222222      0.750000000000
      0.083333333333      0.888888888889      0.750000000000
      0.183333333333      0.055555555555      0.750000000000
      0.183333333333      0.222222222222      0.750000000000
      0.183333333333      0.388888888889      0.750000000000
      0.183333333333      0.555555555555      0.750000000000
      0.183333333333      0.722222222222      0.750000000000
      0.183333333333      0.888888888889      0.750000000000
      0.283333333333      0.055555555555      0.750000000000
      0.283333333333      0.222222222222      0.750000000000
      0.283333333333      0.388888888889      0.750000000000
      0.283333333333      0.555555555555      0.750000000000
      0.283333333333      0.722222222222      0.750000000000
      0.283333333333      0.888888888889      0.750000000000
      0.383333333333      0.055555555555      0.750000000000
      0.383333333333      0.222222222222      0.750000000000
      0.383333333333      0.388888888889      0.750000000000
      0.383333333333      0.555555555555      0.750000000000
      0.383333333333      0.722222222222      0.750000000000
      0.383333333333      0.888888888889      0.750000000000
      0.483333333333      0.055555555555      0.750000000000
      0.483333333333      0.222222222222      0.750000000000
      0.483333333333      0.388888888889      0.750000000000
      0.483333333333      0.555555555555      0.750000000000
      0.483333333333      0.722222222222      0.750000000000
      0.483333333333      0.888888888889      0.750000000000
      0.583333333333      0.055555555555      0.750000000000
      0.583333333333      0.222222222222      0.750000000000
      0.583333333333      0.388888888889      0.750000000000
      0.583333333333      0.555555555555      0.750000000000
      0.583333333333      0.722222222222      0.750000000000
      0.583333333333      0.888888888889      0.750000000000
      0.683333333333      0.055555555555      0.750000000000
      0.683333333333      0.222222222222      0.750000000000
      0.683333333333      0.388888888889      0.750000000000
      0.683333333333      0.555555555555      0.750000000000
      0.683333333333      0.722222222222      0.750000000000
      0.683333333333      0.888888888889      0.750000000000
      0.783333333333      0.055555555555      0.750000000000
      0.783333333333      0.222222222222      0.750000000000
      0.783333333333      0.388888888889      0.750000000000
      0.783333333333      0.555555555555      0.750000000000
      0.783333333333      0.722222222222      0.750000000000
      0.783333333333      0.888888888889      0.750000000000
      0.883333333333      0.055555555555      0.750000000000
      0.883333333333      0.222222222222      0.750000000000
      0.883333333333      0.388888888889      0.750000000000
      0.883333333333      0.555555555555      0.750000000000
      0.883333333333      0.722222222222      0.750000000000
      0.883333333333      0.888888888889      0.750000000000
      0.983333333333      0.055555555555      0.750000000000
      0.983333333333      0.222222222222      0.750000000000
      0.983333333333      0.388888888889      0.750000000000
      0.983333333333      0.555555555555      0.750000000000
      0.983333333333      0.722222222222      0.750000000000
      0.983333333333      0.888888888889      0.750000000000
      0.016666666667      0.111111111111      0.750000000000
      0.016666666667      0.277777777778      0.750000000000
      0.016666666667      0.444444444444      0.750000000000
      0.016666666667      0.611111111111      0.750000000000
      0.016666666667      0.777777777778      0.750000000000
      0.016666666667      0.944444444444      0.750000000000
      0.116666666667      0.111111111111      0.750000000000
      0.116666666667      0.277777777778      0.750000000000
      0.116666666667      0.444444444444      0.750000000000
      0.116666666667      0.611111111111      0.750000000000
      0.116666666667      0.777777777778      0.750000000000
      0.116666666667      0.944444444444      0.750000000000
      0.216666666667      0.111111111111      0.750000000000
      0.216666666667      0.277777777778      0.750000000000
      0.216666666667      0.444444444444      0.750000000000
      0.216666666667      0.611111111111      0.750000000000
      0.216666666667      0.777777777778      0.750000000000
      0.216666666667      0.944444444444      0.750000000000
      0.316666666667      0.111111111111      0.750000000000
      0.316666666667      0.277777777778      0.750000000000
      0.316666666667      0.444444444444      0.750000000000
      0.316666666667      0.611111111111      0.750000000000
      0.316666666667      0.777777777778      0.750000000000
      0.316666666667      0.944444444444      0.750000000000
      0.416666666667      0.111111111111      0.750000000000
      0.416666666667      0.277777777778      0.750000000000
      0.416666666667      0.444444444444      0.750000000000
      0.416666666667      0.611111111111      0.750000000000
      0.416666666667      0.777777777778      0.750000000000
      0.416666666667      0.944444444444      0.750000000000
      0.516666666667      0.111111111111      0.750000000000
      0.516666666667      0.277777777778      0.750000000000
      0.516666666667      0.444444444444      0.750000000000
      0.516666666667      0.611111111111      0.750000000000
      0.516666666667      0.777777777778      0.750000000000
      0.516666666667      0.944444444444      0.750000000000
      0.616666666667      0.111111111111      0.750000000000
      0.616666666667      0.277777777778      0.750000000000
      0.616666666667      0.444444444444      0.750000000000
      0.616666666667      0.611111111111      0.750000000000
      0.616666666667      0.777777777778      0.750000000000
      0.616666666667      0.944444444444      0.750000000000
      0.716666666667      0.111111111111      0.750000000000
      0.716666666667      0.277777777778      0.750000000000
      0.716666666667      0.444444444444      0.750000000000
      0.716666666667      0.611111111111      0.750000000000
      0.716666666667      0.777777777778      0.750000000000
      0.716666666667      0.944444444444      0.750000000000
      0.816666666667      0.111111111111      0.750000000000
      0.816666666667      0.277777777778      0.750000000000
      0.816666666667      0.444444444444      0.750000000000
      0.816666666667      0.611111111111      0.750000000000
      0.816666666667      0.777777777778      0.750000000000
      0.816666666667      0.944444444444      0.750000000000
      0.916666666667      0.111111111111      0.750000000000
      0.916666666667      0.277777777778      0.750000000000
      0.916666666667      0.444444444444      0.750000000000
      0.916666666667      0.611111111111      0.750000000000
      0.916666666667      0.777777777778      0.750000000000
      0.916666666667      0.944444444444      0.750000000000
      0.033333333333      0.013888888889      0.250000000000
      0.033333333333      0.180555555555      0.250000000000
      0.033333333333      0.347222222222      0.250000000000
      0.033333333333      0.513888888889      0.250000000000
      0.033333333333      0.680555555555      0.250000000000
      0.033333333333      0.847222222222      0.250000000000
      0.133333333333      0.013888888889      0.250000000000
      0.133333333333      0.180555555555      0.250000000000
      0.133333333333      0.347222222222      0.250000000000
      0.133333333333      0.513888888889      0.250000000000
      0.133333333333      0.680555555555      0.250000000000
      0.133333333333      0.847222222222      0.250000000000
      0.233333333333      0.013888888889      0.250000000000
      0.233333333333      0.180555555555      0.250000000000
      0.233333333333      0.347222222222      0.250000000000
      0.233333333333      0.513888888889      0.250000000000
      0.233333333333      0.680555555555      0.250000000000
      0.233333333333      0.847222222222      0.250000000000
      0.333333333333      0.013888888889      0.250000000000
      0.333333333333      0.180555555555      0.250000000000
      0.333333333333      0.347222222222      0.250000000000
      0.333333333333      0.513888888889      0.250000000000
      0.333333333333      0.680555555555      0.250000000000
      0.333333333333      0.847222222222      0.250000000000
      0.433333333333      0.013888888889      0.250000000000
      0.433333333333      0.180555555555      0.250000000000
      0.433333333333      0.347222222222      0.250000000000
      0.433333333333      0.513888888889      0.250000000000
      0.433333333333      0.680555555555      0.250000000000
      0.433333333333      0.847222222222      0.250000000000
      0.533333333333      0.013888888889      0.250000000000
      0.533333333333      0.180555555555      0.250000000000
      0.533333333333      0.347222222222      0.250000000000
      0.533333333333      0.513888888889      0.250000000000
      0.533333333333      0.680555555555      0.250000000000
      0.533333333333      0.847222222222      0.250000000000
      0.633333333333      0.013888888889      0.250000000000
      0.633333333333      0.180555555555      0.250000000000
      0.633333333333      0.347222222222      0.250000000000
      0.633333333333      0.513888888889      0.250000000000
      0.633333333333      0.680555555555      0.250000000000
      0.633333333333      0.847222222222      0.250000000000
      0.733333333333      0.013888888889      0.250000000000
      0.733333333333      0.180555555555      0.250000000000
      0.733333333333      0.347222222222      0.250000000000
      0.733333333333      0.513888888889      0.250000000000
      0.733333333333      0.680555555555      0.250000000000
      0.733333333333      0.847222222222      0.250000000000
      0.833333333333      0.013888888889      0.250000000000
      0.833333333333      0.180555555555      0.250000000000
      0.833333333333      0.347222222222      0.250000000000
      0.833333333333      0.513888888889      0.250000000000
      0.833333333333      0.680555555555      0.250000000000
      0.833333333333      0.847222222222      0.250000000000
      0.933333333333      0.013888888889      0.250000000000
      0.933333333333      0.180555555555      0.250000000000
      0.933333333333      0.347222222222      0.250000000000
      0.933333333333      0.513888888889      0.250000000000
      0.933333333333      0.680555555555      0.250000000000
      0.933333333333      0.847222222222      0.250000000000
      0.050000000000      0.125000000000      0.750000000000
      0.050000000000      0.291666666667      0.750000000000
      0.050000000000      0.458333333333      0.750000000000
      0.050000000000      0.625000000000      0.750000000000
      0.050000000000      0.791666666667      0.750000000000
      0.050000000000      0.958333333333      0.750000000000
      0.150000000000      0.125000000000      0.750000000000
      0.150000000000      0.291666666667      0.750000000000
      0.150000000000      0.458333333333      0.750000000000
      0.150000000000      0.625000000000      0.750000000000
      0.150000000000      0.791666666667      0.750000000000
      0.150000000000      0.958333333333      0.750000000000
      0.250000000000      0.125000000000      0.750000000000
      0.250000000000      0.291666666667      0.750000000000
      0.250000000000      0.458333333333      0.750000000000
      0.250000000000      0.625000000000      0.750000000000
      0.250000000000      0.791666666667      0.750000000000
      0.250000000000      0.958333333333      0.750000000000
      0.350000000000      0.125000000000      0.750000000000
      0.350000000000      0.291666666667      0.750000000000
      0.350000000000      0.458333333333      0.750000000000
      0.350000000000      0.625000000000      0.750000000000
      0.350000000000      0.791666666667      0.750000000000
      0.350000000000      0.958333333333      0.750000000000
      0.450000000000      0.125000000000      0.750000000000
      0.450000000000      0.291666666667      0.750000000000
      0.450000000000      0.458333333333      0.750000000000
      0.450000000000      0.625000000000      0.750000000000
      0.450000000000      0.791666666667      0.750000000000
      0.450000000000      0.958333333333      0.750000000000
      0.550000000000      0.125000000000      0.750000000000
      0.550000000000      0.291666666667      0.750000000000
      0.550000000000      0.458333333333      0.750000000000
      0.550000000000      0.625000000000      0.750000000000
      0.550000000000      0.791666666667      0.750000000000
      0.550000000000      0.958333333333      0.750000000000
      0.650000000000      0.125000000000      0.750000000000
      0.650000000000      0.291666666667      0.750000000000
      0.650000000000      0.458333333333      0.750000000000
      0.650000000000      0.625000000000      0.750000000000
      0.650000000000      0.791666666667      0.750000000000
      0.650000000000      0.958333333333      0.750000000000
      0.750000000000      0.125000000000      0.750000000000
      0.750000000000      0.291666666667      0.750000000000
      0.750000000000      0.458333333333      0.750000000000
      0.750000000000      0.625000000000      0.750000000000
      0.750000000000      0.791666666667      0.750000000000
      0.750000000000      0.958333333333      0.750000000000
      0.850000000000      0.125000000000      0.750000000000
      0.850000000000      0.291666666667      0.750000000000
      0.850000000000      0.458333333333      0.750000000000
      0.850000000000      0.625000000000      0.750000000000
      0.850000000000      0.791666666667      0.750000000000
      0.850000000000      0.958333333333      0.750000000000
      0.950000000000      0.125000000000      0.750000000000
      0.950000000000      0.291666666667      0.750000000000
      0.950000000000      0.458333333333      0.750000000000
      0.950000000000      0.625000000000      0.750000000000
      0.950000000000      0.791666666667      0.750000000000
      0.950000000000      0.958333333333      0.750000000000
      0.066666666667      0.069444444444      0.250000000000
      0.066666666667      0.236111111111      0.250000000000
      0.066666666667      0.402777777778      0.250000000000
      0.066666666667      0.569444444444      0.250000000000
      0.066666666667      0.736111111111      0.250000000000
      0.066666666667      0.902777777778      0.250000000000
      0.166666666667      0.069444444444      0.250000000000
      0.166666666667      0.236111111111      0.250000000000