screw dislocation structure
 1.0000000
     43.551927626685      0.000000000000      0.000000000000
      0.000000000000     36.955036030290      0.000000000000
      0.000000000000      0.000000000000      2.514471713899
C  
720
Direct
   0.06666666666699999633   0.11111111111100001325   0.85358127216683721272
   0.06666666666699999633   0.27777777777800000125   0.81532197741631184940
   0.06666666666699999633   0.44444444444400005301   0.76724595729511080311
   0.06666666666699999633   0.61111111111100002713   0.71590382803015795155
   0.06666666666699999633   0.77777777777799994574   0.67071383237938020372
   0.06666666666699999633   0.94444444444399999750   0.63602063647517614875
   0.16666666666700000188   0.11111111111100001325   0.87419617348668554602
   0.16666666666700000188   0.27777777777800000125   0.83193391249046300118
   0.16666666666700000188   0.44444444444400005301   0.77235963048777778184
   0.16666666666700000188   0.61111111111100002713   0.70613008597704407521
   0.16666666666700000188   0.77777777777799994574   0.65204336199221257786
   0.16666666666700000188   0.94444444444399999750   0.61520259530261189873
   0.26666666666700000743   0.11111111111100001325   0.90204336199247758810
   0.26666666666700000743   0.27777777777800000125   0.85817344796942696128
   0.26666666666700000743   0.44444444444400005301   0.78172709349740909790
   0.26666666666700000743   0.61111111111100002713   0.68888412868205972650
   0.26666666666700000743   0.77777777777799994574   0.62419617348640421550
   0.26666666666700000743   0.94444444444399999750   0.58818289595451467289
   0.36666666666699998522   0.11111111111100001325   0.93888412868223858343
   0.36666666666699998522   0.27777777777800000125   0.90204336199246137884
   0.36666666666699998522   0.44444444444400005301   0.80408672398522207381
   0.36666666666699998522   0.61111111111100002713   0.65204336199223500437
   0.36666666666699998522   0.77777777777799994574   0.58193391249023662670
   0.36666666666699998522   0.94444444444399999750   0.55408672398462099906
   0.46666666666699996302   0.11111111111100001325   0.98397727448297445108
   0.46666666666699996302   0.27777777777800000125   0.97215281149447985154
   0.46666666666699996302   0.44444444444400005301   0.90204336199369938853
   0.46666666666699996302   0.61111111111100002713   0.55408672398424574368
   0.46666666666699996302   0.77777777777799994574   0.52235963048734046499
   0.46666666666699996302   0.94444444444399999750   0.51403097924436846888
   0.56666666666699994082   0.11111111111100001325   0.03172709349726288153
   0.56666666666699994082   0.27777777777800000125   0.05408672398499603240
   0.56666666666699994082   0.44444444444400005301   0.15204336199212264980
   0.56666666666699994082   0.61111111111100002713   0.40204336199189882883
   0.56666666666699994082   0.77777777777799994574   0.45613008597686993673
   0.56666666666699994082   0.94444444444399999750   0.47215281149407067884
   0.66666666666700002963   0.11111111111100001325   0.07443682663245110298
   0.66666666666700002963   0.27777777777800000125   0.11520259530284882032
   0.66666666666700002963   0.44444444444400005301   0.20613008597679405298
   0.66666666666700002963   0.61111111111100002713   0.33193391249025838707
   0.66666666666700002963   0.77777777777799994574   0.40204336199225887416
   0.66666666666700002963   0.94444444444399999750   0.43377045548928966356
   0.76666666666700000743   0.11111111111100001325   0.10817344796946692931
   0.76666666666700000743   0.27777777777800000125   0.15204336199251633488
   0.76666666666700000743   0.44444444444400005301   0.22215281149404986216
   0.76666666666700000743   0.61111111111100002713   0.30408672398458430619
   0.76666666666700000743   0.77777777777799994574   0.36520259530257775937
   0.76666666666700000743   0.94444444444399999750   0.40204336199218010384
   0.86666666666699998522   0.11111111111100001325   0.13337289160525944709
   0.86666666666699998522   0.27777777777800000125   0.17440299248005031174
   0.86666666666699998522   0.44444444444400005301   0.22964989735221164047
   0.86666666666699998522   0.61111111111100002713   0.29005574474012923991
   0.86666666666699998522   0.77777777777799994574   0.34092749067442484900
   0.86666666666699998522   0.94444444444399999750   0.37723741244802622141
   0.96666666666699985200   0.11111111111100001325   0.15204336199237977745
   0.96666666666699985200   0.27777777777800000125   0.18888412868217807628
   0.96666666666699985200   0.44444444444400005301   0.23397727448269423078
   0.96666666666699985200   0.61111111111100002713   0.28172709349706492876
   0.96666666666699985200   0.77777777777799994574   0.32443682663234774122
   0.96666666666699985200   0.94444444444399999750   0.35817344796926015027
   0.00000000000000000000   0.00000000000000000000   0.86198761725214689822
   0.00000000000000000000   0.16666666666700000188   0.83193391249039483348
   0.00000000000000000000   0.33333333333300008139   0.79386991402303930254
   0.00000000000000000000   0.50000000000000000000   0.75000000000000000000
   0.00000000000000000000   0.66666666666700002963   0.70613008597696091950
   0.00000000000000000000   0.83333333333300008139   0.66806608750960527754
   0.10000000000000000555   0.00000000000000000000   0.87968373150477008338
   0.10000000000000000555   0.16666666666700000188   0.84795663800757758999
   0.10000000000000000555   0.33333333333300008139   0.80408672398479696941
   0.10000000000000000555   0.50000000000000000000   0.75000000000000000000
   0.10000000000000000555   0.66666666666700002963   0.69591327601520314161
   0.10000000000000000555   0.83333333333300008139   0.65204336199242252103
   0.20000000000000001110   0.00000000000000000000   0.90204336199234891325
   0.20000000000000001110   0.16666666666700000188   0.87031626849515208999
   0.20000000000000001110   0.33333333333300008139   0.82010944950200914683
   0.20000000000000001110   0.50000000000000000000   0.75000000000000000000
   0.20000000000000001110   0.66666666666700002963   0.67989055049799074215
   0.20000000000000001110   0.83333333333300008139   0.62968373150484802103
   0.29999999999999993339   0.00000000000000000000   0.92989055049811475406
   0.29999999999999993339   0.16666666666700000188   0.90204336199227386217
   0.29999999999999993339   0.33333333333300008139   0.84795663800780263220
   0.29999999999999993339   0.50000000000000000000   0.75000000000000000000
   0.29999999999999993339   0.66666666666700002963   0.65204336199219736780
   0.29999999999999993339   0.83333333333300008139   0.59795663800772602681
   0.40000000000000002220   0.00000000000000000000   0.96315923331026476184
   0.40000000000000002220   0.16666666666700000188   0.94591327601525410085
   0.40000000000000002220   0.33333333333300008139   0.90204336199249879336
   0.40000000000000002220   0.50000000000000000000   0.75000000000000000000
   0.40000000000000002220   0.66666666666700002963   0.59795663800750109562
   0.40000000000000002220   0.83333333333300008139   0.55408672398474589915
   0.49999999999999994449   0.00000000000000000000   0.00000000000000000000
   0.49999999999999994449   0.16666666666700000188   0.00000000000000000000
   0.49999999999999994449   0.33333333333300008139   0.00000000000000000000
   0.49999999999999994449   0.50000000000000000000   0.25000000000000000000
   0.49999999999999994449   0.66666666666700002963   0.50000000000000000000
   0.49999999999999994449   0.83333333333300008139   0.50000000000000000000
   0.59999999999999986677   0.00000000000000000000   0.03684076668973523816
   0.59999999999999986677   0.16666666666700000188   0.05408672398474556609
   0.59999999999999986677   0.33333333333300008139   0.09795663800750120664
   0.59999999999999986677   0.50000000000000000000   0.25000000000000000000
   0.59999999999999986677   0.66666666666700002963   0.40204336199249907091
   0.59999999999999986677   0.83333333333300008139   0.44591327601525415636
   0.69999999999999995559   0.00000000000000000000   0.07010944950188546798
   0.69999999999999995559   0.16666666666700000188   0.09795663800772635987
   0.69999999999999995559   0.33333333333300008139   0.15204336199219747883
   0.69999999999999995559   0.50000000000000000000   0.25000000000000000000
   0.69999999999999995559   0.66666666666700002963   0.34795663800780263220
   0.69999999999999995559   0.83333333333300008139   0.40204336199227386217
   0.80000000000000004441   0.00000000000000000000   0.09795663800765130880
   0.80000000000000004441   0.16666666666700000188   0.12968373150484802103
   0.80000000000000004441   0.33333333333300008139   0.17989055049799107522
   0.80000000000000004441   0.50000000000000000000   0.25000000000000000000
   0.80000000000000004441   0.66666666666700002963   0.32010944950200925785
   0.80000000000000004441   0.83333333333300008139   0.37031626849515203448
   0.89999999999999991118   0.00000000000000000000   0.12031626849523013867
   0.89999999999999991118   0.16666666666700000188   0.15204336199242241001
   0.89999999999999991118   0.33333333333300008139   0.19591327601520314161
   0.89999999999999991118   0.50000000000000000000   0.25000000000000000000
   0.89999999999999991118   0.66666666666700002963   0.30408672398479696941
   0.89999999999999991118   0.83333333333300008139   0.34795663800757758999
   0.05000000000000000278   0.00000000000000000000   0.37031626849523147094
   0.05000000000000000278   0.16666666666700000188   0.33930827259364404469
   0.05000000000000000278   0.33333333333300008139   0.29846208982568422918
   0.05000000000000000278   0.50000000000000000000   0.25000000000000000000
   0.05000000000000000278   0.66666666666700002963   0.20153791017431599286
   0.05000000000000000278   0.83333333333300008139   0.16069172740635617735
   0.14999999999999996669   0.00000000000000000000   0.39021889900377249027
   0.14999999999999996669   0.16666666666700000188   0.35817344796931571693
   0.14999999999999996669   0.33333333333300008139   0.31111587131802731498
   0.14999999999999996669   0.50000000000000000000   0.25000000000000000000
   0.14999999999999996669   0.66666666666700002963   0.18888412868197290706
   0.14999999999999996669   0.83333333333300008139   0.14182655203068450511
   0.24999999999999997224   0.00000000000000000000   0.41525289203832649321
   0.24999999999999997224   0.16666666666700000188   0.38479740469730949748
   0.24999999999999997224   0.33333333333300008139   0.33193391249059933656
   0.24999999999999997224   0.50000000000000000000   0.25000000000000000000
   0.24999999999999997224   0.66666666666700002963   0.16806608750940066344
   0.24999999999999997224   0.83333333333300008139   0.11520259530269094661
   0.34999999999999997780   0.00000000000000000000   0.44591327601530417191
   0.34999999999999997780   0.16666666666700000188   0.42239346463992832881
   0.34999999999999997780   0.33333333333300008139   0.37031626849539023283
   0.34999999999999997780   0.50000000000000000000   0.25000000000000000000
   0.34999999999999997780   0.66666666666700002963   0.12968373150460976717
   0.34999999999999997780   0.83333333333300008139   0.07760653536007189324
   0.44999999999999995559   0.00000000000000000000   0.48132952961286301630
   0.44999999999999995559   0.16666666666700000188   0.47215281149420706974
   0.44999999999999995559   0.33333333333300008139   0.44591327601540431402
   0.44999999999999995559   0.50000000000000000000   0.25000000000000000000
   0.44999999999999995559   0.66666666666700002963   0.05408672398459590802
   0.44999999999999995559   0.83333333333300008139   0.02784718850579315230
   0.54999999999999993339   0.00000000000000000000   0.51867047038713720575
   0.54999999999999993339   0.16666666666700000188   0.52784718850579315230
   0.54999999999999993339   0.33333333333300008139   0.55408672398459568598
   0.54999999999999993339   0.50000000000000000000   0.75000000000000000000
   0.54999999999999993339   0.66666666666700002963   0.94591327601540420300
   0.54999999999999993339   0.83333333333300008139   0.97215281149420706974
   0.65000000000000002220   0.00000000000000000000   0.55408672398469605014
   0.65000000000000002220   0.16666666666700000188   0.57760653536007189324
   0.65000000000000002220   0.33333333333300008139   0.62968373150460976717
   0.65000000000000002220   0.50000000000000000000   0.75000000000000000000
   0.65000000000000002220   0.66666666666700002963   0.87031626849539034385
   0.65000000000000002220   0.83333333333300008139   0.92239346463992821779
   0.75000000000000000000   0.00000000000000000000   0.58474710796167372884
   0.75000000000000000000   0.16666666666700000188   0.61520259530269072457
   0.75000000000000000000   0.33333333333300008139   0.66806608750940066344
   0.75000000000000000000   0.50000000000000000000   0.75000000000000000000
   0.75000000000000000000   0.66666666666700002963   0.83193391249059933656
   0.75000000000000000000   0.83333333333300008139   0.88479740469730927543
   0.84999999999999997780   0.00000000000000000000   0.60978110099622773177
   0.84999999999999997780   0.16666666666700000188   0.64182655203068450511
   0.84999999999999997780   0.33333333333300008139   0.68888412868197268502
   0.84999999999999997780   0.50000000000000000000   0.75000000000000000000
   0.84999999999999997780   0.66666666666700002963   0.81111587131802720396
   0.84999999999999997780   0.83333333333300008139   0.85817344796931560591
   0.94999999999999984457   0.00000000000000000000   0.62968373150476830702
   0.94999999999999984457   0.16666666666700000188   0.66069172740635595531
   0.94999999999999984457   0.33333333333300008139   0.70153791017431599286
   0.94999999999999984457   0.50000000000000000000   0.75000000000000000000
   0.94999999999999984457   0.66666666666700002963   0.79846208982568422918
   0.94999999999999984457   0.83333333333300008139   0.83930827259364393367
   0.03333333333299999535   0.05555555555500000381   0.85817344796943517693
   0.03333333333299999535   0.22222222222200002650   0.82443682663234774122
   0.03333333333299999535   0.38888888888899997287   0.78172709349706492876
   0.03333333333299999535   0.55555555555500002463   0.73397727448298089037
   0.03333333333299999535   0.72222222222200005426   0.68888412868217818730
   0.03333333333299999535   0.88888888888900008389   0.65204336199237955540
   0.13333333333299998702   0.05555555555500000381   0.87723741244820518936
   0.13333333333299998702   0.22222222222200002650   0.84092749067442496003
   0.13333333333299998702   0.38888888888899997287   0.79005574474012940644
   0.13333333333299998702   0.55555555555500002463   0.72964989735257401726
   0.13333333333299998702   0.72222222222200005426   0.67440299248005008970
   0.13333333333299998702   0.88888888888900008389   0.63337289160525933607
   0.23333333333299996482   0.05555555555500000381   0.90204336199234891325
   0.23333333333299996482   0.22222222222200002650   0.86520259530257770386
   0.23333333333299996482   0.38888888888899997287   0.80408672398458436170
   0.23333333333299996482   0.55555555555500002463   0.72215281149454069176
   0.23333333333299996482   0.72222222222200005426   0.65204336199251633488
   0.23333333333299996482   0.88888888888900008389   0.60817344796946704033
   0.33333333333300002588   0.05555555555500000381   0.93377045548942227970
   0.33333333333300002588   0.22222222222200002650   0.90204336199225898518
   0.33333333333300002588   0.38888888888899997287   0.83193391249025827605
   0.33333333333300002588   0.55555555555500002463   0.70613008597754434170
   0.33333333333300002588   0.72222222222200005426   0.61520259530284870930
   0.33333333333300002588   0.88888888888900008389   0.57443682663245088094
   0.43333333333299994816   0.05555555555500000381   0.97215281149413201867
   0.43333333333299994816   0.22222222222200002650   0.95613008597686999224
   0.43333333333299994816   0.38888888888899997287   0.90204336199189871781
   0.43333333333299994816   0.55555555555500002463   0.65204336199347279202
   0.43333333333299994816   0.72222222222200005426   0.55408672398499603240
   0.43333333333299994816   0.88888888888900008389   0.53172709349726288153
   0.53333333333299992596   0.05555555555500000381   0.01403097924433716059
   0.53333333333299992596   0.22222222222200002650   0.02235963048734035397
   0.53333333333299992596   0.38888888888899997287   0.05408672398424596572
   0.53333333333299992596   0.55555555555500002463   0.40204336199234902427
   0.53333333333299992596   0.72222222222200005426   0.47215281149447985154
   0.53333333333299992596   0.88888888888900008389   0.48397727448297439556
   0.63333333333300001478   0.05555555555500000381   0.05408672398450820040
   0.63333333333300001478   0.22222222222200002650   0.08193391249023651568
   0.63333333333300001478   0.38888888888899997287   0.15204336199223478232
   0.63333333333300001478   0.55555555555500002463   0.30408672398432179396
   0.63333333333300001478   0.72222222222200005426   0.40204336199246143435
   0.63333333333300001478   0.88888888888900008389   0.43888412868223836139
   0.73333333333299999257   0.05555555555500000381   0.08818289595435446770
   0.73333333333299999257   0.22222222222200002650   0.12419617348640432652
   0.73333333333299999257   0.38888888888899997287   0.18888412868205972650
   0.73333333333299999257   0.55555555555500002463   0.28172709349685304270
   0.73333333333299999257   0.72222222222200005426   0.35817344796942690577
   0.73333333333299999257   0.88888888888900008389   0.40204336199247753258
   0.83333333333299997037   0.05555555555500000381   0.11520259530243404100
   0.83333333333299997037   0.22222222222200002650   0.15204336199221235582
   0.83333333333299997037   0.38888888888899997287   0.20613008597704407521
   0.83333333333299997037   0.55555555555500002463   0.27235963048738054404
   0.83333333333299997037   0.72222222222200005426   0.33193391249046300118
   0.83333333333299997037   0.88888888888900008389   0.37419617348668537948
   0.93333333333299983714   0.05555555555500000381   0.13602063647499873511
   0.93333333333299983714   0.22222222222200002650   0.17071383237938020372
   0.93333333333299983714   0.38888888888899997287   0.21590382803015772950
   0.93333333333299983714   0.55555555555500002463   0.26724595729480282724
   0.93333333333299983714   0.72222222222200005426   0.31532197741631207144
   0.93333333333299983714   0.88888888888900008389   0.35358127216683721272
   0.08333333333299999812   0.05555555555500000381   0.36707816746581412026
   0.08333333333299999812   0.22222222222200002650   0.33193391249046277913
   0.08333333333299999812   0.38888888888899997287   0.28541625359749778212
   0.08333333333299999812   0.55555555555500002463   0.23206991597948323225
   0.08333333333299999812   0.72222222222200005426   0.18236374787782483331
   0.08333333333299999812   0.88888888888900008389   0.14339499657845045100
   0.18333333333300000367   0.05555555555500000381   0.38883383194638709845
   0.18333333333300000367   0.22222222222200002650   0.35183654299898492468
   0.18333333333300000367   0.38888888888899997287   0.29605501049598270669
   0.18333333333300000367   0.55555555555500002463   0.22648018862494589953
   0.18333333333300000367   0.72222222222200005426   0.16452212094336271520
   0.18333333333300000367   0.88888888888900008389   0.12172297610703886050
   0.28333333333299992596   0.05555555555500000381   0.41700440948843953137
   0.28333333333299992596   0.22222222222200002650   0.38169325934464515271
   0.28333333333299992596   0.38888888888899997287   0.31532197741617751241
   0.28333333333299992596   0.55555555555500002463   0.21590382803053165262
   0.28333333333299992596   0.72222222222200005426   0.13602063647535800328
   0.28333333333299992596   0.88888888888900008389   0.09246907998955555819
   0.38333333333300001478   0.05555555555500000381   0.45225018098562119739
   0.38333333333300001478   0.22222222222200002650   0.42684931153638983048
   0.38333333333300001478   0.38888888888899997287   0.35817344796909345028
   0.38333333333300001478   0.55555555555500002463   0.18888412868279402801
   0.38333333333300001478   0.72222222222200005426   0.08818289595481965115
   0.38333333333300001478   0.88888888888900008389   0.05408672398482439192
   0.48333333333299993706   0.05555555555500000381   0.49297085266664875114
   0.48333333333299993706   0.22222222222200002650   0.48876474656815660502
   0.48333333333299993706   0.38888888888899997287   0.47215281149366150615
   0.48333333333299993706   0.55555555555500002463   0.05408672398619640553
   0.48333333333299993706   0.72222222222200005426   0.01403097924478724501
   0.48333333333299993706   0.88888888888900008389   0.00803171348878284341
   0.58333333333299985934   0.05555555555500000381   0.53461240657905806373
   0.58333333333299985934   0.22222222222200002650   0.55408672398445579788
   0.58333333333299985934   0.38888888888899997287   0.61520259530237453305
   0.58333333333299985934   0.55555555555500002463   0.83193391249005399501
   0.58333333333299985934   0.72222222222200005426   0.93377045548964288102
   0.58333333333299985934   0.88888888888900008389   0.96063046771211102470
   0.68333333333299994816   0.05555555555500000381   0.57201680800521259584
   0.68333333333299994816   0.22222222222200002650   0.60521222289315357301
   0.68333333333299994816   0.38888888888899997287   0.67440299247987334219
   0.68333333333299994816   0.55555555555500002463   0.79005574473988859907
   0.68333333333299994816   0.72222222222200005426   0.87723741244824315899
   0.68333333333299994816   0.88888888888900008389   0.91928931928745172275
   0.78333333333300003698   0.05555555555500000381   0.60254881381010294561
   0.78333333333300003698   0.22222222222200002650   0.63956460304132134453
   0.78333333333300003698   0.38888888888899997287   0.69887450109133131271
   0.78333333333300003698   0.55555555555500002463   0.77623953547870339076
   0.78333333333300003698   0.72222222222200005426   0.84345625627276143987
   0.78333333333300003698   0.88888888888900008389   0.88708231449635366328
   0.88333333333299990375   0.05555555555500000381   0.62629959380629318666
   0.88333333333299990375   0.22222222222200002650   0.66226017195397002268
   0.88333333333299990375   0.38888888888899997287   0.71161764399523597113
   0.88333333333299990375   0.55555555555500002463   0.76947431740528582367
   0.88333333333299990375   0.72222222222200005426   0.82275719437182615046
   0.88333333333299990375   0.88888888888900008389   0.86311864886047751089
   0.98333333333299988155   0.05555555555500000381   0.64454627613407700082
   0.98333333333299988155   0.22222222222200002650   0.67778713017813996267
   0.98333333333299988155   0.38888888888899997287   0.71933961602303098104
   0.98333333333299988155   0.55555555555500002463   0.76547375433069042572
   0.98333333333299988155   0.72222222222200005426   0.80920039717729841389
   0.98333333333299988155   0.88888888888900008389   0.84533967528715237005
   0.01666666666700000049   0.11111111111100001325   0.34533967528715225903
   0.01666666666700000049   0.27777777777800000125   0.30920039717729852491
   0.01666666666700000049   0.44444444444400005301   0.26547375433096709330
   0.01666666666700000049   0.61111111111100002713   0.21933961602303098104
   0.01666666666700000049   0.77777777777799994574   0.17778713017814018471
   0.01666666666700000049   0.94444444444399999750   0.14454627613425086174
   0.11666666666699999910   0.11111111111100001325   0.36311864886047739986
   0.11666666666699999910   0.27777777777800000125   0.32275719437182615046
   0.11666666666699999910   0.44444444444400005301   0.26947431740563287939
   0.11666666666699999910   0.61111111111100002713   0.21161764399523597113
   0.11666666666699999910   0.77777777777799994574   0.16226017195396980064
   0.11666666666699999910   0.94444444444399999750   0.12629959380647193257
   0.21666666666699999078   0.11111111111100001325   0.38708231449635355226
   0.21666666666699999078   0.27777777777800000125   0.34345625627276166192
   0.21666666666699999078   0.44444444444400005301   0.27623953547916713092
   0.21666666666699999078   0.61111111111100002713   0.19887450109133109066
   0.21666666666699999078   0.77777777777799994574   0.13956460304132134453
   0.21666666666699999078   0.94444444444399999750   0.10254881381027480813
   0.31666666666699994082   0.11111111111100001325   0.41928931928745183377
   0.31666666666699994082   0.27777777777800000125   0.37723741244824315899
   0.31666666666699994082   0.44444444444400005301   0.29005574474057937984
   0.31666666666699994082   0.61111111111100002713   0.17440299247987356424
   0.31666666666699994082   0.77777777777799994574   0.10521222289315357301
   0.31666666666699994082   0.94444444444399999750   0.07201680800535315008
   0.41666666666699997412   0.11111111111100001325   0.46063046771211091368
   0.41666666666699997412   0.27777777777800000125   0.43377045548964288102
   0.41666666666699997412   0.44444444444400005301   0.33193391249128167964
   0.41666666666699997412   0.61111111111100002713   0.11520259530237497714
   0.41666666666699997412   0.77777777777799994574   0.05408672398445579788
   0.41666666666699997412   0.94444444444399999750   0.03461240657913378094
   0.51666666666700000743   0.11111111111100001325   0.50803171348878284341
   0.51666666666700000743   0.27777777777800000125   0.51403097924478724501
   0.51666666666700000743   0.44444444444400005301   0.55408672398529623671
   0.51666666666700000743   0.61111111111100002713   0.97215281149366150615
   0.51666666666700000743   0.77777777777799994574   0.98876474656815660502
   0.51666666666700000743   0.94444444444399999750   0.99297085266663287495
   0.61666666666699987420   0.11111111111100001325   0.55408672398482461396
   0.61666666666699987420   0.27777777777800000125   0.58818289595481987320
   0.61666666666699987420   0.44444444444400005301   0.68888412868179926818
   0.61666666666699987420   0.61111111111100002713   0.85817344796909345028
   0.61666666666699987420   0.77777777777799994574   0.92684931153638960843
   0.61666666666699987420   0.94444444444399999750   0.95225018098552005608
   0.71666666666699996302   0.11111111111100001325   0.59246907998955533614
   0.71666666666699996302   0.27777777777800000125   0.63602063647535822533
   0.71666666666699996302   0.44444444444400005301   0.71590382802993679512
   0.71666666666699996302   0.61111111111100002713   0.81532197741617762343
   0.71666666666699996302   0.77777777777799994574   0.88169325934464504169
   0.71666666666699996302   0.94444444444399999750   0.91700440948828476628
   0.81666666666700005184   0.11111111111100001325   0.62172297610703886050
   0.81666666666700005184   0.27777777777800000125   0.66452212094336293724
   0.81666666666700005184   0.44444444444400005301   0.72648018862452867772
   0.81666666666700005184   0.61111111111100002713   0.79605501049598270669
   0.81666666666700005184   0.77777777777799994574   0.85183654299898481366
   0.81666666666700005184   0.94444444444399999750   0.88883383194621079504
   0.91666666666699991861   0.11111111111100001325   0.64339499657845045100
   0.91666666666699991861   0.27777777777800000125   0.68236374787782483331
   0.91666666666699991861   0.44444444444400005301   0.73206991597916326597
   0.91666666666699991861   0.61111111111100002713   0.78541625359749778212
   0.91666666666699991861   0.77777777777799994574   0.83193391249046300118
   0.91666666666699991861   0.94444444444399999750   0.86707816746563581844
   0.03333333333299999535   0.01388888888900000236   0.86520259530253873503
   0.03333333333299999535   0.18055555555499999687   0.83374898765915561594
   0.03333333333299999535   0.34722222222199999875   0.79312462450703202776
   0.03333333333299999535   0.51388888888900008389   0.74598158484110244082
   0.03333333333299999535   0.68055555555500002463   0.69951392685291291507
   0.03333333333299999535   0.84722222222200005426   0.66037201323552952026
   0.13333333333299998702   0.01388888888900000236   0.88434724773963580002
   0.13333333333299998702   0.18055555555499999687   0.85131552847358860081
   0.13333333333299998702   0.34722222222199999875   0.80408672398472424980
   0.13333333333299998702   0.51388888888900008389   0.74488632680734589986
   0.13333333333299998702   0.68055555555500002463   0.68700855651914383149
   0.13333333333299998702   0.84722222222200005426   0.64226961993936193540
   0.23333333333299996482   0.01388888888900000236   0.90865952111655146073
   0.23333333333299996482   0.18055555555499999687   0.87629959380650201961
   0.23333333333299996482   0.34722222222199999875   0.82201680800541854222
   0.23333333333299996482   0.51388888888900008389   0.74297085266673301707
   0.23333333333299996482   0.68055555555500002463   0.66700440948875538982
   0.23333333333299996482   0.84722222222200005426   0.61707816746592658586
   0.33333333333300002588   0.01388888888900000236   0.93888412868196124972
   0.33333333333300002588   0.18055555555499999687   0.91226017195407138605
   0.33333333333300002588   0.34722222222199999875   0.85521222289331499944
   0.33333333333300002588   0.51388888888900008389   0.73876474656830415366
   0.33333333333300002588   0.68055555555500002463   0.63169325934510478504
   0.33333333333300002588   0.84722222222200005426   0.58193391249064174708
   0.43333333333299994816   0.01388888888900000236   0.97449721565448754745
   0.43333333333299994816   0.18055555555499999687   0.96161764399511173718
   0.43333333333299994816   0.34722222222199999875   0.92440299247969814900
   0.43333333333299994816   0.51388888888900008389   0.72215281149415189166
   0.43333333333299994816   0.68055555555500002463   0.56532197741679468539
   0.43333333333299994816   0.84722222222200005426   0.53541625359775191217
   0.53333333333299992596   0.01388888888900000236   0.01283377268218832690