system                                  
   1.00000000000000     
     4.5524180000000003    0.0000000000000000    0.0000000000000000
     0.0000000000000000    3.3061099999999999    0.0000000000000000
     0.0000000000000000    0.0000000000000000   30.0000000000000000
   P 
     4
Direct
  0.9131029880151522  0.7500000000000000  0.4647477716093140
  0.5868970119828441  0.2500000000000000  0.4647477716093140
  0.0868970119848478  0.7500000000000000  0.5352522283906861
  0.4131029880171559  0.2500000000000000  0.5352522283906861
