system
 1.0000000
      4.552418000000      0.000000000000      0.000000000000
      0.000000000000     26.448880000000      0.000000000000
      0.000000000000      0.000000000000     30.000000000000
P  
 32
Direct
     0.913102988015152217     0.093750000000000000     0.464747771609314020
     0.913102988015152217     0.218750000000000000     0.464747771609314020
     0.913102988015152217     0.343750000000000000     0.464747771609314020
     0.913102988015152217     0.468750000000000000     0.464747771609314020
     0.913102988015152217     0.593750000000000000     0.464747771609314020
     0.913102988015152217     0.718750000000000000     0.464747771609314020
     0.913102988015152217     0.843750000000000000     0.464747771609314020
     0.913102988015152217     0.968750000000000000     0.464747771609314020
     0.586897011982844052     0.031250000000000000     0.464747771609314020
     0.586897011982844052     0.156250000000000000     0.464747771609314020
     0.586897011982844052     0.281250000000000000     0.464747771609314020
     0.586897011982844052     0.406250000000000000     0.464747771609314020
     0.586897011982844052     0.531250000000000000     0.464747771609314020
     0.586897011982844052     0.656250000000000000     0.464747771609314020
     0.586897011982844052     0.781250000000000000     0.464747771609314020
     0.586897011982844052     0.906250000000000000     0.464747771609314020
     0.086897011984847797     0.093750000000000000     0.535252228390686091
     0.086897011984847797     0.218750000000000000     0.535252228390686091
     0.086897011984847797     0.343750000000000000     0.535252228390686091
     0.086897011984847797     0.468750000000000000     0.535252228390686091
     0.086897011984847797     0.593750000000000000     0.535252228390686091
     0.086897011984847797     0.718750000000000000     0.535252228390686091
     0.086897011984847797     0.843750000000000000     0.535252228390686091
     0.086897011984847797     0.968750000000000000     0.535252228390686091
     0.413102988017155892     0.031250000000000000     0.535252228390686091
     0.413102988017155892     0.156250000000000000     0.535252228390686091
     0.413102988017155892     0.281250000000000000     0.535252228390686091
     0.413102988017155892     0.406250000000000000     0.535252228390686091
     0.413102988017155892     0.531250000000000000     0.535252228390686091
     0.413102988017155892     0.656250000000000000     0.535252228390686091
     0.413102988017155892     0.781250000000000000     0.535252228390686091
     0.413102988017155892     0.906250000000000000     0.535252228390686091
