bending struct
 1.0000000
      4.552418000000      0.000000000000      0.000000000000
      0.000000000000     26.355779942400      0.000000000000
      0.000000000000      0.000000000000     30.000000000000
P  
 32
Direct
     0.913102988015152217     0.097461688677394312     0.474157728940452605
     0.913102988015152217     0.219585821744670506     0.481101734961884797
     0.913102988015152217     0.341342278520425202     0.478668445101288920
     0.913102988015152217     0.464190003958479869     0.468227531466988700
     0.913102988015152217     0.589538311322605812     0.455682279649229471
     0.913102988015152217     0.717714178255329460     0.448412984696966221
     0.913102988015152217     0.846657721479574854     0.450981915128095157
     0.913102988015152217     0.973509996041520331     0.461745063534286682
     0.586897011982844052     0.035809996041520201     0.468227531466988700
     0.586897011982844052     0.158657721479574770     0.478668445101288920
     0.586897011982844052     0.280414178255329549     0.481101734961884797
     0.586897011982844052     0.402538311322605702     0.474157728940452605
     0.586897011982844052     0.526490003958479780     0.461745063534286682
     0.586897011982844052     0.653342278520425146     0.450981915128095157
     0.586897011982844052     0.782285821744670651     0.448412984696966221
     0.586897011982844052     0.910461688677394299     0.455682279649229471
     0.086897011984847797     0.089538311322605674     0.544317720350770640
     0.086897011984847797     0.217714178255329516     0.551587015303034001
     0.086897011984847797     0.346657721479574799     0.549018084871904843
     0.086897011984847797     0.473509996041520220     0.538254936465713318
     0.086897011984847797     0.597461688677394354     0.525842271059547506
     0.086897011984847797     0.719585821744670562     0.518898265038115314
     0.086897011984847797     0.841342278520425313     0.521331554898711080
     0.086897011984847797     0.964190003958479758     0.531772468533011411
     0.413102988017155892     0.026490003958479783     0.538254936465713429
     0.413102988017155892     0.153342278520425229     0.549018084871904843
     0.413102988017155892     0.282285821744670540     0.551587015303034001
     0.413102988017155892     0.410461688677394299     0.544317720350770640
     0.413102988017155892     0.535809996041520242     0.531772468533011411
     0.413102988017155892     0.658657721479574798     0.521331554898711080
     0.413102988017155892     0.780414178255329549     0.518898265038115314
     0.413102988017155892     0.902538311322605757     0.525842271059547506
