system
 1.0000000
     14.569600000000     21.854400000000      0.000000000000
    -10.927200000000      7.284800000000      0.000000000000
      0.000000000000      0.000000000000     22.801300000000
C  
156
Direct
      0.044234615385      0.682306153846      0.526440000000
      0.159619230769      0.836152307692      0.526440000000
      0.275003846154      0.989998461538      0.526440000000
      0.005773076923      0.297690769231      0.526440000000
      0.121157692308      0.451536923077      0.526440000000
      0.236542307692      0.605383076923      0.526440000000
      0.351926923077      0.759229230769      0.526440000000
      0.467311538462      0.913075384615      0.526440000000
      0.082696153846      0.066921538462      0.526440000000
      0.198080769231      0.220767692308      0.526440000000
      0.313465384615      0.374613846154      0.526440000000
      0.428850000000      0.528460000000      0.526440000000
      0.544234615385      0.682306153846      0.526440000000
      0.659619230769      0.836152307692      0.526440000000
      0.775003846154      0.989998461538      0.526440000000
      0.390388461538      0.143844615385      0.526440000000
      0.505773076923      0.297690769231      0.526440000000
      0.621157692308      0.451536923077      0.526440000000
      0.736542307692      0.605383076923      0.526440000000
      0.851926923077      0.759229230769      0.526440000000
      0.967311538462      0.913075384615      0.526440000000
      0.582696153846      0.066921538462      0.526440000000
      0.698080769231      0.220767692308      0.526440000000
      0.813465384615      0.374613846154      0.526440000000
      0.928850000000      0.528460000000      0.526440000000
      0.890388461538      0.143844615385      0.526440000000
      0.109611538462      0.856155384615      0.526440000000
      0.071150000000      0.471540000000      0.526440000000
      0.186534615385      0.625386153846      0.526440000000
      0.301919230769      0.779232307692      0.526440000000
      0.417303846154      0.933078461538      0.526440000000
      0.032688461538      0.086924615385      0.526440000000
      0.148073076923      0.240770769231      0.526440000000
      0.263457692308      0.394616923077      0.526440000000
      0.378842307692      0.548463076923      0.526440000000
      0.494226923077      0.702309230769      0.526440000000
      0.609611538462      0.856155384615      0.526440000000
      0.224996153846      0.010001538462      0.526440000000
      0.340380769231      0.163847692308      0.526440000000
      0.455765384615      0.317693846154      0.526440000000
      0.571150000000      0.471540000000      0.526440000000
      0.686534615385      0.625386153846      0.526440000000
      0.801919230769      0.779232307692      0.526440000000
      0.917303846154      0.933078461538      0.526440000000
      0.532688461538      0.086924615385      0.526440000000
      0.648073076923      0.240770769231      0.526440000000
      0.763457692308      0.394616923077      0.526440000000
      0.878842307692      0.548463076923      0.526440000000
      0.994226923077      0.702309230769      0.526440000000
      0.724996153846      0.010001538462      0.526440000000
      0.840380769231      0.163847692308      0.526440000000
      0.955765384615      0.317693846154      0.526440000000
      0.033460769231      0.834607692308      0.473560000000
      0.148845384615      0.988453846154      0.473560000000
      0.110383846154      0.603838461538      0.473560000000
      0.225768461538      0.757684615385      0.473560000000
      0.341153076923      0.911530769231      0.473560000000
      0.071922307692      0.219223076923      0.473560000000
      0.187306923077      0.373069230769      0.473560000000
      0.302691538462      0.526915384615      0.473560000000
      0.418076153846      0.680761538462      0.473560000000
      0.533460769231      0.834607692308      0.473560000000
      0.648845384615      0.988453846154      0.473560000000
      0.264230000000      0.142300000000      0.473560000000
      0.379614615385      0.296146153846      0.473560000000
      0.494999230769      0.449992307692      0.473560000000
      0.610383846154      0.603838461538      0.473560000000
      0.725768461538      0.757684615385      0.473560000000
      0.841153076923      0.911530769231      0.473560000000
      0.456537692308      0.065376923077      0.473560000000
      0.571922307692      0.219223076923      0.473560000000
      0.687306923077      0.373069230769      0.473560000000
      0.802691538462      0.526915384615      0.473560000000
      0.918076153846      0.680761538462      0.473560000000
      0.764230000000      0.142300000000      0.473560000000
      0.879614615385      0.296146153846      0.473560000000
      0.994999230769      0.449992307692      0.473560000000
      0.956537692308      0.065376923077      0.473560000000
      0.043462307692      0.934623076923      0.473560000000
      0.005000769231      0.550007692308      0.473560000000
      0.120385384615      0.703853846154      0.473560000000
      0.235770000000      0.857700000000      0.473560000000
      0.081923846154      0.319238461538      0.473560000000
      0.197308461538      0.473084615385      0.473560000000
      0.312693076923      0.626930769231      0.473560000000
      0.428077692308      0.780776923077      0.473560000000
      0.543462307692      0.934623076923      0.473560000000
      0.158846923077      0.088469230769      0.473560000000
      0.274231538462      0.242315384615      0.473560000000
      0.389616153846      0.396161538462      0.473560000000
      0.505000769231      0.550007692308      0.473560000000
      0.620385384615      0.703853846154      0.473560000000
      0.735770000000      0.857700000000      0.473560000000
      0.351154615385      0.011546153846      0.473560000000
      0.466539230769      0.165392307692      0.473560000000
      0.581923846154      0.319238461538      0.473560000000
      0.697308461538      0.473084615385      0.473560000000
      0.812693076923      0.626930769231      0.473560000000
      0.928077692308      0.780776923077      0.473560000000
      0.658846923077      0.088469230769      0.473560000000
      0.774231538462      0.242315384615      0.473560000000
      0.889616153846      0.396161538462      0.473560000000
      0.851154615385      0.011546153846      0.473560000000
      0.966539230769      0.165392307692      0.473560000000
      0.076923076923      0.769230769231      0.500000000000
      0.192307692308      0.923076923077      0.500000000000
      0.038461538462      0.384615384615      0.500000000000
      0.153846153846      0.538461538462      0.500000000000
      0.269230769231      0.692307692308      0.500000000000
      0.384615384615      0.846153846154      0.500000000000
      0.000000000000      0.000000000000      0.500000000000
      0.115384615385      0.153846153846      0.500000000000
      0.230769230769      0.307692307692      0.500000000000
      0.346153846154      0.461538461538      0.500000000000
      0.461538461538      0.615384615385      0.500000000000
      0.576923076923      0.769230769231      0.500000000000
      0.692307692308      0.923076923077      0.500000000000
      0.307692307692      0.076923076923      0.500000000000
      0.423076923077      0.230769230769      0.500000000000
      0.538461538462      0.384615384615      0.500000000000
      0.653846153846      0.538461538462      0.500000000000
      0.769230769231      0.692307692308      0.500000000000
      0.884615384615      0.846153846154      0.500000000000
      0.500000000000      0.000000000000      0.500000000000
      0.615384615385      0.153846153846      0.500000000000
      0.730769230769      0.307692307692      0.500000000000
      0.846153846154      0.461538461538      0.500000000000
      0.961538461538      0.615384615385      0.500000000000
      0.807692307692      0.076923076923      0.500000000000
      0.923076923077      0.230769230769      0.500000000000
      0.096153846154      0.961538461538      0.500000000000
      0.057692307692      0.576923076923      0.500000000000
      0.173076923077      0.730769230769      0.500000000000
      0.288461538462      0.884615384615      0.500000000000
      0.019230769231      0.192307692308      0.500000000000
      0.134615384615      0.346153846154      0.500000000000
      0.250000000000      0.500000000000      0.500000000000
      0.365384615385      0.653846153846      0.500000000000
      0.480769230769      0.807692307692      0.500000000000
      0.596153846154      0.961538461538      0.500000000000
      0.211538461538      0.115384615385      0.500000000000
      0.326923076923      0.269230769231      0.500000000000
      0.442307692308      0.423076923077      0.500000000000
      0.557692307692      0.576923076923      0.500000000000
      0.673076923077      0.730769230769      0.500000000000
      0.788461538462      0.884615384615      0.500000000000
      0.403846153846      0.038461538462      0.500000000000
      0.519230769231      0.192307692308      0.500000000000
      0.634615384615      0.346153846154      0.500000000000
      0.750000000000      0.500000000000      0.500000000000
      0.865384615385      0.653846153846      0.500000000000
      0.980769230769      0.807692307692      0.500000000000
      0.711538461538      0.115384615385      0.500000000000
      0.826923076923      0.269230769231      0.500000000000
      0.942307692308      0.423076923077      0.500000000000
      0.903846153846      0.038461538462      0.500000000000
