4_6_nanotube
 1.0000000
     21.544207619862      0.000000000000      0.000000000000
      0.000000000000     21.544207619862      0.000000000000
      0.000000000000      0.000000000000     13.132859965750
C  
156
Direct
      0.713497164823      0.560914824681      0.682306153846
      0.619410922105      0.687170208461      0.836152307692
      0.465263552467      0.719283000860      0.989998461538
      0.721871196962      0.508051534761      0.297690769231
      0.660733820502      0.653154478224      0.451536923077
      0.518750787519      0.721224011402      0.605383076923
      0.367336511487      0.678022622351      0.759229230769
      0.282649118398      0.545279681094      0.913075384615
      0.692715453495      0.610237966407      0.066921538462
      0.571148294957      0.710308286518      0.220767692308
      0.413795073484      0.704598059369      0.374613846154
      0.299801076957      0.595979406468      0.528460000000
      0.286502835177      0.439085175319      0.682306153846
      0.380589077895      0.312829791539      0.836152307692
      0.534736447533      0.280716999140      0.989998461538
      0.328587869231      0.641101157609      0.143844615385
      0.278128803038      0.491948465239      0.297690769231
      0.339266179498      0.346845521776      0.451536923077
      0.481249212481      0.278775988598      0.605383076923
      0.632663488513      0.321977377649      0.759229230769
      0.717350881602      0.454720318906      0.913075384615
      0.307284546505      0.389762033593      0.066921538462
      0.428851705043      0.289691713482      0.220767692308
      0.586204926516      0.295401940631      0.374613846154
      0.700198923043      0.404020593532      0.528460000000
      0.671412130769      0.358898842391      0.143844615385
      0.671412130769      0.641101157609      0.856155384615
      0.700198923043      0.595979406468      0.471540000000
      0.586204926516      0.704598059369      0.625386153846
      0.428851705043      0.710308286518      0.779232307692
      0.307284546505      0.610237966407      0.933078461538
      0.717350881602      0.545279681094      0.086924615385
      0.632663488513      0.678022622351      0.240770769231
      0.481249212481      0.721224011402      0.394616923077
      0.339266179498      0.653154478224      0.548463076923
      0.278128803038      0.508051534761      0.702309230769
      0.328587869231      0.358898842391      0.856155384615
      0.534736447533      0.719283000860      0.010001538462
      0.380589077895      0.687170208461      0.163847692308
      0.286502835177      0.560914824681      0.317693846154
      0.299801076957      0.404020593532      0.471540000000
      0.413795073484      0.295401940631      0.625386153846
      0.571148294957      0.289691713482      0.779232307692
      0.692715453495      0.389762033593      0.933078461538
      0.282649118398      0.454720318906      0.086924615385
      0.367336511487      0.321977377649      0.240770769231
      0.518750787519      0.278775988598      0.394616923077
      0.660733820502      0.346845521776      0.548463076923
      0.721871196962      0.491948465239      0.702309230769
      0.465263552467      0.280716999140      0.010001538462
      0.619410922105      0.312829791539      0.163847692308
      0.713497164823      0.439085175319      0.317693846154
      0.662395398511      0.534654136061      0.834607692308
      0.598574758415      0.633627061657      0.988453846154
      0.627689404115      0.606153618310      0.603838461538
      0.525184021852      0.664130861348      0.757684615385
      0.410011617962      0.639553809342      0.911530769231
      0.649383205780      0.572510912520      0.219223076923
      0.563731306061      0.653334585894      0.373069230769
      0.446023929383      0.657034258697      0.526915384615
      0.355465355937      0.581749075037      0.680761538462
      0.337604601489      0.465345863939      0.834607692308
      0.401425241585      0.366372938343      0.988453846154
      0.485173133834      0.665388447732      0.142300000000
      0.379229104210      0.613962999845      0.296146153846
      0.334030239036      0.505216612824      0.449992307692
      0.372310595885      0.393846381690      0.603838461538
      0.474815978148      0.335869138652      0.757684615385
      0.589988382038      0.360446190658      0.911530769231
      0.340101435816      0.544784191133      0.065376923077
      0.350616794220      0.427489087480      0.219223076923
      0.436268693939      0.346665414106      0.373069230769
      0.553976070617      0.342965741303      0.526915384615
      0.644534644063      0.418250924963      0.680761538462
      0.514826866166      0.334611552268      0.142300000000
      0.620770895790      0.386037000155      0.296146153846
      0.665969760964      0.494783387176      0.449992307692
      0.659898564184      0.455215808867      0.065376923077
      0.659898564184      0.544784191133      0.934623076923
      0.665969760964      0.505216612824      0.550007692308
      0.620770895790      0.613962999845      0.703853846154
      0.514826866166      0.665388447732      0.857700000000
      0.644534644063      0.581749075037      0.319238461538
      0.553976070617      0.657034258697      0.473084615385
      0.436268693939      0.653334585894      0.626930769231
      0.350616794220      0.572510912520      0.780776923077
      0.340101435816      0.455215808867      0.934623076923
      0.589988382038      0.639553809342      0.088469230769
      0.474815978148      0.664130861348      0.242315384615
      0.372310595885      0.606153618310      0.396161538462
      0.334030239036      0.494783387176      0.550007692308
      0.379229104210      0.386037000155      0.703853846154
      0.485173133834      0.334611552268      0.857700000000
      0.401425241585      0.633627061657      0.011546153846
      0.337604601489      0.534654136061      0.165392307692
      0.355465355937      0.418250924963      0.319238461538
      0.446023929383      0.342965741303      0.473084615385
      0.563731306061      0.346665414106      0.626930769231
      0.649383205780      0.427489087480      0.780776923077
      0.410011617962      0.360446190658      0.088469230769
      0.525184021852      0.335869138652      0.242315384615
      0.627689404115      0.393846381690      0.396161538462
      0.598574758415      0.366372938343      0.011546153846
      0.662395398511      0.465345863939      0.165392307692
      0.671809001080      0.590172319861      0.769230769231
      0.568805575495      0.681425392109      0.923076923077
      0.688396192387      0.546435490903      0.384615384615
      0.610224148752      0.659687247935      0.538461538462
      0.476611727711      0.692619751948      0.692307692308
      0.354763104869      0.628668661351      0.846153846154
      0.694034481784      0.500000000000      0.000000000000
      0.645236895131      0.628668661351      0.153846153846
      0.523388272289      0.692619751948      0.307692307692
      0.389775851248      0.659687247935      0.461538461538
      0.311603807613      0.546435490903      0.615384615385
      0.328190998920      0.409827680139      0.769230769231
      0.431194424505      0.318574607891      0.923076923077
      0.431194424505      0.681425392109      0.076923076923
      0.328190998920      0.590172319861      0.230769230769
      0.311603807613      0.453564509097      0.384615384615
      0.389775851248      0.340312752065      0.538461538462
      0.523388272289      0.307380248052      0.692307692308
      0.645236895131      0.371331338649      0.846153846154
      0.305965518216      0.500000000000      0.000000000000
      0.354763104869      0.371331338649      0.153846153846
      0.476611727711      0.307380248052      0.307692307692
      0.610224148752      0.340312752065      0.461538461538
      0.688396192387      0.453564509097      0.615384615385
      0.568805575495      0.318574607891      0.076923076923
      0.671809001080      0.409827680139      0.230769230769
      0.659687247935      0.610224148752      0.961538461538
      0.681425392109      0.568805575495      0.576923076923
      0.590172319861      0.671809001080      0.730769230769
      0.453564509097      0.688396192387      0.884615384615
      0.692619751948      0.523388272289      0.192307692308
      0.628668661351      0.645236895131      0.346153846154
      0.500000000000      0.694034481784      0.500000000000
      0.371331338649      0.645236895131      0.653846153846
      0.307380248052      0.523388272289      0.807692307692
      0.340312752065      0.389775851248      0.961538461538
      0.546435490903      0.688396192387      0.115384615385
      0.409827680139      0.671809001080      0.269230769231
      0.318574607891      0.568805575495      0.423076923077
      0.318574607891      0.431194424505      0.576923076923
      0.409827680139      0.328190998920      0.730769230769
      0.546435490903      0.311603807613      0.884615384615
      0.340312752065      0.610224148752      0.038461538462
      0.307380248052      0.476611727711      0.192307692308
      0.371331338649      0.354763104869      0.346153846154
      0.500000000000      0.305965518216      0.500000000000
      0.628668661351      0.354763104869      0.653846153846
      0.692619751948      0.476611727711      0.807692307692
      0.453564509097      0.311603807613      0.115384615385
      0.590172319861      0.328190998920      0.269230769231
      0.681425392109      0.431194424505      0.423076923077
      0.659687247935      0.389775851248      0.038461538462
