system                                  
   1.00000000000000     
     5.9775840650659999    0.0000000000000000    0.0000000000000000
    -2.9887920325330000    5.1767396536039998    0.0000000000000000
     0.0000000000000000    0.0000000000000000   20.0000000000000000
   Cl   Ni
     6     2
Direct
  0.0000000000000000  0.3684322082857280  0.4336073663585694
  0.0000000000000000  0.6315677917142720  0.5663926336414307
  0.6315677917142720  0.6315677917142720  0.4336073663585694
  0.3684322082857280  0.3684322082857280  0.5663926336414307
  0.3684322082857280  0.0000000000000000  0.4336073663585694
  0.6315677917142720  0.0000000000000000  0.5663926336414307
  0.3333333333333357  0.6666666666666643  0.5000000000000000
  0.6666666666666643  0.3333333333333357  0.5000000000000000
