primitive cell
 1.0000000
      5.977584065066      0.000000000000      0.000000000000
     -2.988792032533      5.176739653604      0.000000000000
      0.000000000000      0.000000000000     20.000000000000
Cl  Ni 
  6   2
Direct
     0.000000000000000000     0.368432208285731477     0.433607366358569390
     0.000000000000000000     0.631567791714268467     0.566392633641430665
     0.631567791714268467     0.631567791714268467     0.433607366358569390
     0.368432208285731477     0.368432208285731477     0.566392633641430665
     0.368432208285731477     0.000000000000000000     0.433607366358569390
     0.631567791714268467     0.000000000000000000     0.566392633641430665
     0.333333333333333315     0.666666666666666630     0.500000000000000000
     0.666666666666666741     0.333333333333333426     0.500000000000000000
