generated by phonopy
   1.0
     5.9775840650659102    0.0000000000000000    0.0000000000000000
    -2.9887920325329551    5.1767396536041304    0.0000000000000000
     0.0000000000000000    0.0000000000000000   20.0000000000000000
Cl Ni
   6    2
Direct
  0.0000000000000000  0.3684322082857315  0.4336073663585694
  0.0000000000000000  0.6315677917142685  0.5663926336414307
  0.6315677917142685  0.6315677917142685  0.4336073663585694
  0.3684322082857315  0.3684322082857315  0.5663926336414307
  0.3684322082857315  0.0000000000000000  0.4336073663585694
  0.6315677917142685  0.0000000000000000  0.5663926336414307
  0.3333333333333333  0.6666666666666666  0.5000000000000000
  0.6666666666666667  0.3333333333333334  0.5000000000000000
