system
 1.0000000
     14.569600000000     21.854400000000      0.000000000000
    -10.927200000000      7.284800000000      0.000000000000
      0.000000000000      0.000000000000     22.801300000000
C  
156
Direct
     0.044234615384615372     0.682306153846153896     0.526440000000000019
     0.159619230769230791     0.836152307692307639     0.526440000000000019
     0.275003846153846154     0.989998461538461605     0.526440000000000019
     0.005773076923076922     0.297690769230769259     0.526440000000000019
     0.121157692307692313     0.451536923076923058     0.526440000000000019
     0.236542307692307718     0.605383076923076913     0.526440000000000019
     0.351926923076923082     0.759229230769230878     0.526440000000000019
     0.467311538461538500     0.913075384615384733     0.526440000000000019
     0.082696153846153850     0.066921538461538477     0.526440000000000019
     0.198080769230769227     0.220767692307692304     0.526440000000000019
     0.313465384615384646     0.374613846153846131     0.526440000000000019
     0.428850000000000009     0.528460000000000041     0.526440000000000019
     0.544234615384615483     0.682306153846153896     0.526440000000000019
     0.659619230769230902     0.836152307692307750     0.526440000000000019
     0.775003846153846210     0.989998461538461605     0.526440000000000019
     0.390388461538461573     0.143844615384615349     0.526440000000000019
     0.505773076923076936     0.297690769230769259     0.526440000000000019
     0.621157692307692355     0.451536923076923113     0.526440000000000019
     0.736542307692307774     0.605383076923077024     0.526440000000000019
     0.851926923076923082     0.759229230769230767     0.526440000000000019
     0.967311538461538500     0.913075384615384511     0.526440000000000019
     0.582696153846153919     0.066921538461538477     0.526440000000000019
     0.698080769230769338     0.220767692307692331     0.526440000000000019
     0.813465384615384757     0.374613846153846186     0.526440000000000019
     0.928849999999999953     0.528460000000000041     0.526440000000000019
     0.890388461538461629     0.143844615384615460     0.526440000000000019
     0.109611538461538482     0.856155384615384651     0.526440000000000019
     0.071150000000000005     0.471540000000000070     0.526440000000000019
     0.186534615384615410     0.625386153846153925     0.526440000000000019
     0.301919230769230773     0.779232307692307780     0.526440000000000019
     0.417303846153846192     0.933078461538461523     0.526440000000000019
     0.032688461538461534     0.086924615384615392     0.526440000000000019
     0.148073076923076918     0.240770769230769233     0.526440000000000019
     0.263457692307692337     0.394616923076923143     0.526440000000000019
     0.378842307692307700     0.548463076923076942     0.526440000000000019
     0.494226923076923119     0.702309230769230797     0.526440000000000019
     0.609611538461538482     0.856155384615384651     0.526440000000000019
     0.224996153846153846     0.010001538461538451     0.526440000000000019
     0.340380769230769264     0.163847692307692333     0.526440000000000019
     0.455765384615384628     0.317693846153846104     0.526440000000000019
     0.571150000000000047     0.471539999999999959     0.526440000000000019
     0.686534615384615465     0.625386153846153814     0.526440000000000019
     0.801919230769230773     0.779232307692307669     0.526440000000000019
     0.917303846153846192     0.933078461538461523     0.526440000000000019
     0.532688461538461500     0.086924615384615378     0.526440000000000019
     0.648073076923076918     0.240770769230769233     0.526440000000000019
     0.763457692307692337     0.394616923076923087     0.526440000000000019
     0.878842307692307756     0.548463076923076942     0.526440000000000019
     0.994226923076923175     0.702309230769230797     0.526440000000000019
     0.724996153846153901     0.010001538461538395     0.526440000000000019
     0.840380769230769320     0.163847692307692250     0.526440000000000019
     0.955765384615384628     0.317693846153846104     0.526440000000000019
     0.033460769230769211     0.834607692307692384     0.473559999999999981
     0.148845384615384629     0.988453846153846238     0.473559999999999981
     0.110383846153846152     0.603838461538461546     0.473559999999999981
     0.225768461538461584     0.757684615384615512     0.473559999999999981
     0.341153076923076948     0.911530769230769256     0.473559999999999981
     0.071922307692307702     0.219223076923076909     0.473559999999999981
     0.187306923076923093     0.373069230769230820     0.473559999999999981
     0.302691538461538512     0.526915384615384674     0.473559999999999981
     0.418076153846153875     0.680761538461538529     0.473559999999999981
     0.533460769230769238     0.834607692307692384     0.473559999999999981
     0.648845384615384657     0.988453846153846238     0.473559999999999981
     0.264230000000000020     0.142300000000000038     0.473559999999999981
     0.379614615384615439     0.296146153846153892     0.473559999999999981
     0.494999230769230802     0.449992307692307747     0.473559999999999981
     0.610383846153846221     0.603838461538461546     0.473559999999999981
     0.725768461538461640     0.757684615384615512     0.473559999999999981
     0.841153076923076948     0.911530769230769256     0.473559999999999981
     0.456537692307692367     0.065376923076923110     0.473559999999999981
     0.571922307692307674     0.219223076923076965     0.473559999999999981
     0.687306923076923093     0.373069230769230820     0.473559999999999981
     0.802691538461538512     0.526915384615384674     0.473559999999999981
     0.918076153846153820     0.680761538461538529     0.473559999999999981
     0.764230000000000076     0.142299999999999982     0.473559999999999981
     0.879614615384615495     0.296146153846153837     0.473559999999999981
     0.994999230769230802     0.449992307692307691     0.473559999999999981
     0.956537692307692478     0.065376923076923110     0.473559999999999981
     0.043462307692307717     0.934623076923077001     0.473559999999999981
     0.005000769230769253     0.550007692307692309     0.473559999999999981
     0.120385384615384644     0.703853846153846163     0.473559999999999981
     0.235770000000000007     0.857700000000000018     0.473559999999999981
     0.081923846153846167     0.319238461538461582     0.473559999999999981
     0.197308461538461544     0.473084615384615381     0.473559999999999981
     0.312693076923076907     0.626930769230769291     0.473559999999999981
     0.428077692307692326     0.780776923076923035     0.473559999999999981
     0.543462307692307744     0.934623076923077001     0.473559999999999981
     0.158846923076923108     0.088469230769230786     0.473559999999999981
     0.274231538461538471     0.242315384615384599     0.473559999999999981
     0.389616153846153834     0.396161538461538454     0.473559999999999981
     0.505000769230769309     0.550007692307692309     0.473559999999999981
     0.620385384615384727     0.703853846153846163     0.473559999999999981
     0.735770000000000035     0.857700000000000018     0.473559999999999981
     0.351154615384615398     0.011546153846153817     0.473559999999999981
     0.466539230769230762     0.165392307692307672     0.473559999999999981
     0.581923846153846180     0.319238461538461527     0.473559999999999981
     0.697308461538461599     0.473084615384615381     0.473559999999999981
     0.812693076923076907     0.626930769230769291     0.473559999999999981
     0.928077692307692326     0.780776923076923035     0.473559999999999981
     0.658846923076923163     0.088469230769230744     0.473559999999999981
     0.774231538461538582     0.242315384615384599     0.473559999999999981
     0.889616153846153890     0.396161538461538454     0.473559999999999981
     0.851154615384615454     0.011546153846153873     0.473559999999999981
     0.966539230769230762     0.165392307692307727     0.473559999999999981
     0.076923076923076927     0.769230769230769273     0.500000000000000000
     0.192307692307692291     0.923076923076923128     0.500000000000000000
     0.038461538461538464     0.384615384615384637     0.500000000000000000
     0.153846153846153855     0.538461538461538547     0.500000000000000000
     0.269230769230769218     0.692307692307692291     0.500000000000000000
     0.384615384615384637     0.846153846153846256     0.500000000000000000
     0.000000000000000000     0.000000000000000000     0.500000000000000000
     0.115384615384615391     0.153846153846153855     0.500000000000000000
     0.230769230769230782     0.307692307692307709     0.500000000000000000
     0.346153846153846145     0.461538461538461564     0.500000000000000000
     0.461538461538461564     0.615384615384615419     0.500000000000000000
     0.576923076923076983     0.769230769230769273     0.500000000000000000
     0.692307692307692291     0.923076923076923128     0.500000000000000000
     0.307692307692307709     0.076923076923076927     0.500000000000000000
     0.423076923076923073     0.230769230769230782     0.500000000000000000
     0.538461538461538547     0.384615384615384637     0.500000000000000000
     0.653846153846153966     0.538461538461538547     0.500000000000000000
     0.769230769230769162     0.692307692307692291     0.500000000000000000
     0.884615384615384581     0.846153846153846256     0.500000000000000000
     0.500000000000000000     0.000000000000000000     0.500000000000000000
     0.615384615384615419     0.153846153846153855     0.500000000000000000
     0.730769230769230838     0.307692307692307709     0.500000000000000000
     0.846153846153846145     0.461538461538461564     0.500000000000000000
     0.961538461538461564     0.615384615384615530     0.500000000000000000
     0.807692307692307709     0.076923076923076983     0.500000000000000000
     0.923076923076923128     0.230769230769230838     0.500000000000000000
     0.096153846153846173     0.961538461538461675     0.500000000000000000
     0.057692307692307682     0.576923076923076872     0.500000000000000000
     0.173076923076923100     0.730769230769230838     0.500000000000000000
     0.288461538461538436     0.884615384615384692     0.500000000000000000
     0.019230769230769232     0.192307692307692318     0.500000000000000000
     0.134615384615384609     0.346153846153846145     0.500000000000000000
     0.250000000000000000     0.500000000000000000     0.500000000000000000
     0.365384615384615419     0.653846153846153966     0.500000000000000000
     0.480769230769230838     0.807692307692307709     0.500000000000000000
     0.596153846153846256     0.961538461538461675     0.500000000000000000
     0.211538461538461536     0.115384615384615391     0.500000000000000000
     0.326923076923076983     0.269230769230769273     0.500000000000000000
     0.442307692307692291     0.423076923076923128     0.500000000000000000
     0.557692307692307709     0.576923076923076872     0.500000000000000000
     0.673076923076923128     0.730769230769230838     0.500000000000000000
     0.788461538461538436     0.884615384615384581     0.500000000000000000
     0.403846153846153855     0.038461538461538491     0.500000000000000000
     0.519230769230769273     0.192307692307692402     0.500000000000000000
     0.634615384615384692     0.346153846153846145     0.500000000000000000
     0.750000000000000111     0.500000000000000111     0.500000000000000000
     0.865384615384615419     0.653846153846153855     0.500000000000000000
     0.980769230769230838     0.807692307692307820     0.500000000000000000
     0.711538461538461564     0.115384615384615308     0.500000000000000000
     0.826923076923076983     0.269230769230769273     0.500000000000000000
     0.942307692307692291     0.423076923076923017     0.500000000000000000
     0.903846153846153966     0.038461538461538547     0.500000000000000000
