4_6_nanotube
 1.0000000
     21.544207619862      0.000000000000      0.000000000000
      0.000000000000     21.544207619862      0.000000000000
      0.000000000000      0.000000000000     13.132859965750
C  
156
Direct
     0.713497164822827101     0.560914824680838642     0.682306153846153896
     0.619410922105313455     0.687170208460752274     0.836152307692307639
     0.465263552466871455     0.719283000859758714     0.989998461538461605
     0.721871196961840100     0.508051534760717738     0.297690769230769259
     0.660733820502079405     0.653154478224073021     0.451536923076923058
     0.518750787518981626     0.721224011401793152     0.605383076923076913
     0.367336511487181272     0.678022622351463822     0.759229230769230878
     0.282649118397581833     0.545279681093558066     0.913075384615384733
     0.692715453494930133     0.610237966406887877     0.066921538461538477
     0.571148294956828284     0.710308286517718823     0.220767692307692304
     0.413795073483537168     0.704598059369031970     0.374613846153846131
     0.299801076957427082     0.595979406467620376     0.528460000000000041
     0.286502835177172899     0.439085175319161247     0.682306153846153896
     0.380589077894686656     0.312829791539247615     0.836152307692307750
     0.534736447533128656     0.280716999140241341     0.989998461538461605
     0.328587869231030005     0.641101157608731986     0.143844615384615349
     0.278128803038159844     0.491948465239282318     0.297690769230769259
     0.339266179497920595     0.346845521775927035     0.451536923076923113
     0.481249212481018374     0.278775988598206848     0.605383076923077024
     0.632663488512818728     0.321977377648536067     0.759229230769230767
     0.717350881602418111     0.454720318906441934     0.913075384615384511
     0.307284546505069922     0.389762033593112012     0.066921538461538477
     0.428851705043171938     0.289691713482281177     0.220767692307692331
     0.586204926516462943     0.295401940630968030     0.374613846153846186
     0.700198923042572918     0.404020593532379568     0.528460000000000041
     0.671412130768970106     0.358898842391268014     0.143844615384615460
     0.671412130768969995     0.641101157608732097     0.856155384615384651
     0.700198923042572918     0.595979406467620265     0.471540000000000070
     0.586204926516462721     0.704598059369032081     0.625386153846153925
     0.428851705043171827     0.710308286517718823     0.779232307692307780
     0.307284546505069867     0.610237966406887877     0.933078461538461523
     0.717350881602418111     0.545279681093558066     0.086924615384615392
     0.632663488512818839     0.678022622351463822     0.240770769230769233
     0.481249212481018318     0.721224011401793152     0.394616923076923143
     0.339266179497920595     0.653154478224072910     0.548463076923076942
     0.278128803038159844     0.508051534760717627     0.702309230769230797
     0.328587869231030005     0.358898842391267903     0.856155384615384651
     0.534736447533128545     0.719283000859758603     0.010001538461538451
     0.380589077894686489     0.687170208460752274     0.163847692307692333
     0.286502835177172899     0.560914824680838642     0.317693846153846104
     0.299801076957427082     0.404020593532379624     0.471539999999999959
     0.413795073483537279     0.295401940630967919     0.625386153846153814
     0.571148294956828173     0.289691713482281177     0.779232307692307669
     0.692715453494930133     0.389762033593112123     0.933078461538461523
     0.282649118397581833     0.454720318906442045     0.086924615384615378
     0.367336511487181216     0.321977377648536123     0.240770769230769233
     0.518750787518981737     0.278775988598206848     0.394616923076923087
     0.660733820502079405     0.346845521775927090     0.548463076923076942
     0.721871196961840100     0.491948465239282429     0.702309230769230797
     0.465263552466871511     0.280716999140241286     0.010001538461538395
     0.619410922105313566     0.312829791539247726     0.163847692307692250
     0.713497164822827101     0.439085175319161358     0.317693846153846104
     0.662395398510936984     0.534654136060658924     0.834607692307692384
     0.598574758415383212     0.633627061656632851     0.988453846153846238
     0.627689404115317706     0.606153618310031117     0.603838461538461546
     0.525184021852251881     0.664130861348443569     0.757684615384615512
     0.410011617961855146     0.639553809341750323     0.911530769230769256
     0.649383205780169170     0.572510912519953452     0.219223076923076909
     0.563731306061014736     0.653334585894357112     0.373069230769230820
     0.446023929383133899     0.657034258696628903     0.526915384615384674
     0.355465355937452043     0.581749075036658847     0.680761538461538529
     0.337604601489063016     0.465345863939341076     0.834607692307692384
     0.401425241584616732     0.366372938343367260     0.988453846153846238
     0.485173133833631087     0.665388447732365163     0.142300000000000038
     0.379229104210173529     0.613962999845386603     0.296146153846153892
     0.334030239036494814     0.505216612823821687     0.449992307692307747
     0.372310595884682294     0.393846381689968772     0.603838461538461546
     0.474815978147748119     0.335869138651556431     0.757684615384615512
     0.589988382038144743     0.360446190658249677     0.911530769230769256
     0.340101435815590714     0.544784191132597795     0.065376923076923110
     0.350616794219830830     0.427489087480046603     0.219223076923076965
     0.436268693938985264     0.346665414105642888     0.373069230769230820
     0.553976070616866045     0.342965741303370986     0.526915384615384674
     0.644534644062547901     0.418250924963341042     0.680761538461538529
     0.514826866166368968     0.334611552267634837     0.142299999999999982
     0.620770895789826471     0.386037000154613397     0.296146153846153837
     0.665969760963505131     0.494783387176178258     0.449992307692307691
     0.659898564184409286     0.455215808867402205     0.065376923076923110
     0.659898564184409286     0.544784191132597906     0.934623076923077001
     0.665969760963505131     0.505216612823821687     0.550007692307692309
     0.620770895789826360     0.613962999845386603     0.703853846153846163
     0.514826866166368968     0.665388447732365163     0.857700000000000018
     0.644534644062547901     0.581749075036658847     0.319238461538461582
     0.553976070616866156     0.657034258696628903     0.473084615384615381
     0.436268693938985319     0.653334585894357112     0.626930769230769291
     0.350616794219830830     0.572510912519953452     0.780776923076923035
     0.340101435815590714     0.455215808867402094     0.934623076923077001
     0.589988382038144854     0.639553809341750323     0.088469230769230786
     0.474815978147748119     0.664130861348443569     0.242315384615384599
     0.372310595884682294     0.606153618310031228     0.396161538461538454
     0.334030239036494869     0.494783387176178258     0.550007692307692309
     0.379229104210173640     0.386037000154613286     0.703853846153846163
     0.485173133833631143     0.334611552267634837     0.857700000000000018
     0.401425241584616788     0.633627061656632851     0.011546153846153817
     0.337604601489063016     0.534654136060659035     0.165392307692307672
     0.355465355937452043     0.418250924963341153     0.319238461538461527
     0.446023929383133844     0.342965741303371041     0.473084615384615381
     0.563731306061014736     0.346665414105642888     0.626930769230769291
     0.649383205780169170     0.427489087480046603     0.780776923076923035
     0.410011617961855146     0.360446190658249677     0.088469230769230744
     0.525184021852251992     0.335869138651556431     0.242315384615384599
     0.627689404115317817     0.393846381689968883     0.396161538461538454
     0.598574758415383212     0.366372938343367149     0.011546153846153873
     0.662395398510936984     0.465345863939341076     0.165392307692307727
     0.671809001080086565     0.590172319860500783     0.769230769230769273
     0.568805575495350491     0.681425392109029859     0.923076923076923128
     0.688396192386619643     0.546435490902815291     0.384615384615384637
     0.610224148751704165     0.659687247935218157     0.538461538461538547
     0.476611727710702093     0.692619751947933127     0.692307692307692291
     0.354763104868912160     0.628668661350940572     0.846153846153846256
     0.694034481783938673     0.500000000000000000     0.000000000000000000
     0.645236895131087840     0.628668661350940572     0.153846153846153855
     0.523388272289297962     0.692619751947933127     0.307692307692307709
     0.389775851248295835     0.659687247935218157     0.461538461538461564
     0.311603807613380357     0.546435490902815291     0.615384615384615419
     0.328190998919913546     0.409827680139499106     0.769230769230769273
     0.431194424504649398     0.318574607890970085     0.923076923076923128
     0.431194424504649454     0.681425392109029970     0.076923076923076927
     0.328190998919913546     0.590172319860500894     0.230769230769230782
     0.311603807613380357     0.453564509097184598     0.384615384615384637
     0.389775851248295946     0.340312752064781787     0.538461538461538547
     0.523388272289297740     0.307380248052066818     0.692307692307692291
     0.645236895131087840     0.371331338649059317     0.846153846153846256
     0.305965518216061327     0.500000000000000000     0.000000000000000000
     0.354763104868912160     0.371331338649059428     0.153846153846153855
     0.476611727710702149     0.307380248052066818     0.307692307692307709
     0.610224148751704165     0.340312752064781843     0.461538461538461564
     0.688396192386619643     0.453564509097184654     0.615384615384615530
     0.568805575495350491     0.318574607890970030     0.076923076923076983
     0.671809001080086565     0.409827680139499217     0.230769230769230838
     0.659687247935218046     0.610224148751704165     0.961538461538461675
     0.681425392109029970     0.568805575495350491     0.576923076923076872
     0.590172319860500783     0.671809001080086565     0.730769230769230838
     0.453564509097184709     0.688396192386619643     0.884615384615384692
     0.692619751947933127     0.523388272289297962     0.192307692307692318
     0.628668661350940572     0.645236895131087840     0.346153846153846145
     0.500000000000000000     0.694034481783938673     0.500000000000000000
     0.371331338649059428     0.645236895131087840     0.653846153846153966
     0.307380248052066818     0.523388272289297851     0.807692307692307709
     0.340312752064781954     0.389775851248295668     0.961538461538461675
     0.546435490902815291     0.688396192386619643     0.115384615384615391
     0.409827680139499106     0.671809001080086454     0.269230769230769273
     0.318574607890970085     0.568805575495350602     0.423076923076923128
     0.318574607890970030     0.431194424504649509     0.576923076923076872
     0.409827680139499217     0.328190998919913435     0.730769230769230838
     0.546435490902815291     0.311603807613380357     0.884615384615384581
     0.340312752064781898     0.610224148751704165     0.038461538461538491
     0.307380248052066873     0.476611727710702038     0.192307692307692402
     0.371331338649059484     0.354763104868912105     0.346153846153846145
     0.500000000000000111     0.305965518216061327     0.500000000000000111
     0.628668661350940572     0.354763104868912160     0.653846153846153855
     0.692619751947933127     0.476611727710702149     0.807692307692307820
     0.453564509097184709     0.311603807613380357     0.115384615384615308
     0.590172319860500894     0.328190998919913546     0.269230769230769273
     0.681425392109029859     0.431194424504649398     0.423076923076923017
     0.659687247935218268     0.389775851248295946     0.038461538461538547
