penta-graphene
1.0
   3.6424000    0.0000000    0.0000000
   0.0000000    3.6424000    0.0000000
   0.0000000    0.0000000   22.8013000
C
  6
Direct
 0.130020000000  0.630020000000  0.526440000000
 0.869980000000  0.369980000000  0.526440000000
 0.630020000000  0.869980000000  0.473560000000
 0.369980000000  0.130020000000  0.473560000000
 0.000000000000  0.000000000000  0.500000000000
 0.500000000000  0.500000000000  0.500000000000
