screw dislocation structure
 1.0000000
     43.551927626685      0.000000000000      0.000000000000
      0.000000000000     36.955036030290      0.000000000000
      0.000000000000      0.000000000000      2.514471713899
C  
720
Direct
     0.066666666666700000     0.111111111111166685     0.853581272166751392
     0.066666666666700000     0.277777777777833301     0.815321977416315402
     0.066666666666700000     0.444444444444500042     0.767245957294945047
     0.066666666666700000     0.611111111111166672     0.715903828030131195
     0.066666666666700000     0.777777777777833412     0.670713832379466468
     0.066666666666700000     0.944444444444499820     0.636020636475142176
     0.166666666666699992     0.111111111111166685     0.874196173486579742
     0.166666666666699992     0.277777777777833301     0.831933912490452787
     0.166666666666699992     0.444444444444500042     0.772359630487559179
     0.166666666666699992     0.611111111111166672     0.706130085977019206
     0.166666666666699992     0.777777777777833412     0.652043361992325043
     0.166666666666699992     0.944444444444499820     0.615202595302594024
     0.266666666666700025     0.111111111111166685     0.902043361992348913
     0.266666666666700025     0.277777777777833301     0.858173447969385106
     0.266666666666700025     0.444444444444500042     0.781727093497091241
     0.266666666666700025     0.611111111111166672     0.688884128682047847
     0.266666666666700025     0.777777777777833412     0.624196173486554207
     0.266666666666700025     0.944444444444499820     0.588182895954526219
     0.366666666666700003     0.111111111111166685     0.938884128682090147
     0.366666666666700003     0.277777777777833301     0.902043361992349024
     0.366666666666700003     0.444444444444500042     0.804086723984659191
     0.366666666666700003     0.611111111111166672     0.652043361992291182
     0.366666666666700003     0.777777777777833412     0.581933912490430916
     0.366666666666700003     0.944444444444499820     0.554086723984677176
     0.466666666666700036     0.111111111111166685     0.983977274482824349
     0.466666666666700036     0.277777777777833301     0.972152811494254920
     0.466666666666700036     0.444444444444500042     0.902043361992349024
     0.466666666666700036     0.611111111111166672     0.554086723984620777
     0.466666666666700036     0.777777777777833412     0.522359630487552185
     0.466666666666700036     0.944444444444499820     0.514030979244478381
     0.566666666666700070     0.111111111111166685     0.031727093497137204
     0.566666666666700070     0.277777777777833301     0.054086723984733354
     0.566666666666700070     0.444444444444500042     0.152043361992460158
     0.566666666666700070     0.611111111111166672     0.402043361992348858
     0.566666666666700070     0.777777777777833412     0.456130085977032418
     0.566666666666700070     0.944444444444499820     0.472152811494224056
     0.666666666666699936     0.111111111111166685     0.074436826632363173
     0.666666666666699936     0.277777777777833301     0.115202595302647426
     0.666666666666699936     0.444444444444500042     0.206130085977094257
     0.666666666666699936     0.611111111111166672     0.331933912490483429
     0.666666666666699936     0.777777777777833412     0.402043361992348969
     0.666666666666699936     0.944444444444499820     0.433770455489461804
     0.766666666666699914     0.111111111111166685     0.108173447969412972
     0.766666666666699914     0.277777777777833301     0.152043361992375559
     0.766666666666699914     0.444444444444500042     0.222152811494264801
     0.766666666666699914     0.611111111111166672     0.304086723984715590
     0.766666666666699914     0.777777777777833412     0.365202595302619171
     0.766666666666699914     0.944444444444499820     0.402043361992348858
     0.866666666666700003     0.111111111111166685     0.133372891605228583
     0.866666666666700003     0.277777777777833301     0.174402992479948393
     0.866666666666700003     0.444444444444500042     0.229649897352376398
     0.866666666666700003     0.611111111111166672     0.290055744740218169
     0.866666666666700003     0.777777777777833412     0.340927490674440670
     0.866666666666700003     0.944444444444499820     0.377237412448180820
     0.966666666666699981     0.111111111111166685     0.152043361992363568
     0.966666666666699981     0.277777777777833301     0.188884128682101027
     0.966666666666699981     0.444444444444500042     0.233977274482827458
     0.966666666666699981     0.611111111111166672     0.281727093497131098
     0.966666666666699981     0.777777777777833412     0.324436826632350517
     0.966666666666699981     0.944444444444499820     0.358173447969397651
     0.000000000000000000     0.000000000000000000     0.861987617252146898
     0.000000000000000000     0.166666666666666657     0.831933912490463001
     0.000000000000000000     0.333333333333333315     0.793869914022956036
     0.000000000000000000     0.500000000000000000     0.750000000000000000
     0.000000000000000000     0.666666666666666630     0.706130085977044297
     0.000000000000000000     0.833333333333333370     0.668066087509537110
     0.100000000000000006     0.000000000000000000     0.879683731504770083
     0.100000000000000006     0.166666666666666657     0.847956638007652530
     0.100000000000000006     0.333333333333333315     0.804086723984696827
     0.100000000000000006     0.500000000000000000     0.750000000000000000
     0.100000000000000006     0.666666666666666630     0.695913276015303284
     0.100000000000000006     0.833333333333333370     0.652043361992347581
     0.200000000000000011     0.000000000000000000     0.902043361992348913
     0.200000000000000011     0.166666666666666657     0.870316268495231582
     0.200000000000000011     0.333333333333333315     0.820109449501886578
     0.200000000000000011     0.500000000000000000     0.750000000000000000
     0.200000000000000011     0.666666666666666630     0.679890550498113533
     0.200000000000000011     0.833333333333333370     0.629683731504768529
     0.300000000000000044     0.000000000000000000     0.929890550498114754
     0.300000000000000044     0.166666666666666657     0.902043361992348913
     0.300000000000000044     0.333333333333333315     0.847956638007652530
     0.300000000000000044     0.500000000000000000     0.750000000000000000
     0.300000000000000044     0.666666666666666630     0.652043361992347581
     0.300000000000000044     0.833333333333333370     0.597956638007651198
     0.400000000000000022     0.000000000000000000     0.963159233310264762
     0.400000000000000022     0.166666666666666657     0.945913276015304172
     0.400000000000000022     0.333333333333333315     0.902043361992349024
     0.400000000000000022     0.500000000000000000     0.750000000000000000
     0.400000000000000022     0.666666666666666630     0.597956638007651198
     0.400000000000000022     0.833333333333333370     0.554086723984695828
     0.499999999999999944     0.000000000000000000     0.000000000000000000
     0.499999999999999944     0.166666666666666657     0.000000000000000000
     0.499999999999999944     0.333333333333333315     0.000000000000000000
     0.499999999999999944     0.500000000000000000     0.250000000000000000
     0.499999999999999944     0.666666666666666630     0.500000000000000000
     0.499999999999999944     0.833333333333333370     0.500000000000000000
     0.600000000000000089     0.000000000000000000     0.036840766689735460
     0.600000000000000089     0.166666666666666657     0.054086723984695828
     0.600000000000000089     0.333333333333333315     0.097956638007651309
     0.600000000000000089     0.500000000000000000     0.250000000000000000
     0.600000000000000089     0.666666666666666630     0.402043361992348858
     0.600000000000000089     0.833333333333333370     0.445913276015304116
     0.700000000000000067     0.000000000000000000     0.070109449501885468
     0.700000000000000067     0.166666666666666657     0.097956638007651309
     0.700000000000000067     0.333333333333333315     0.152043361992347581
     0.700000000000000067     0.500000000000000000     0.250000000000000000
     0.700000000000000067     0.666666666666666630     0.347956638007652530
     0.700000000000000067     0.833333333333333370     0.402043361992348858
     0.800000000000000044     0.000000000000000000     0.097956638007651309
     0.800000000000000044     0.166666666666666657     0.129683731504768529
     0.800000000000000044     0.333333333333333315     0.179890550498113644
     0.800000000000000044     0.500000000000000000     0.250000000000000000
     0.800000000000000044     0.666666666666666630     0.320109449501886412
     0.800000000000000044     0.833333333333333370     0.370316268495231471
     0.899999999999999911     0.000000000000000000     0.120316268495230139
     0.899999999999999911     0.166666666666666657     0.152043361992347581
     0.899999999999999911     0.333333333333333315     0.195913276015303062
     0.899999999999999911     0.500000000000000000     0.250000000000000000
     0.899999999999999911     0.666666666666666630     0.304086723984696827
     0.899999999999999911     0.833333333333333370     0.347956638007652530
     0.050000000000000003     0.000000000000000000     0.370316268495231471
     0.050000000000000003     0.166666666666666657     0.339308272593715765
     0.050000000000000003     0.333333333333333315     0.298462089825593191
     0.050000000000000003     0.500000000000000000     0.250000000000000000
     0.050000000000000003     0.666666666666666630     0.201537910174407031
     0.050000000000000003     0.833333333333333370     0.160691727406284457
     0.150000000000000022     0.000000000000000000     0.390218899003772490
     0.150000000000000022     0.166666666666666657     0.358173447969393433
     0.150000000000000022     0.333333333333333315     0.311115871317916737
     0.150000000000000022     0.500000000000000000     0.250000000000000000
     0.150000000000000022     0.666666666666666630     0.188884128682083485
     0.150000000000000022     0.833333333333333370     0.141826552030606567
     0.249999999999999972     0.000000000000000000     0.415252892038326493
     0.249999999999999972     0.166666666666666657     0.384797404697388323
     0.249999999999999972     0.333333333333333315     0.331933912490462779
     0.249999999999999972     0.500000000000000000     0.250000000000000000
     0.249999999999999972     0.666666666666666630     0.168066087509536999
     0.249999999999999972     0.833333333333333370     0.115202595302611899
     0.350000000000000033     0.000000000000000000     0.445913276015304172
     0.350000000000000033     0.166666666666666657     0.422393464639994054
     0.350000000000000033     0.333333333333333315     0.370316268495231471
     0.350000000000000033     0.500000000000000000     0.250000000000000000
     0.350000000000000033     0.666666666666666630     0.129683731504768529
     0.350000000000000033     0.833333333333333370     0.077606535360005724
     0.449999999999999956     0.000000000000000000     0.481329529612863016
     0.449999999999999956     0.166666666666666657     0.472152811494234159
     0.449999999999999956     0.333333333333333315     0.445913276015304172
     0.449999999999999956     0.500000000000000000     0.250000000000000000
     0.449999999999999956     0.666666666666666630     0.054086723984696050
     0.449999999999999956     0.833333333333333370     0.027847188505765619
     0.549999999999999933     0.000000000000000000     0.518670470387137206
     0.549999999999999933     0.166666666666666657     0.527847188505765841
     0.549999999999999933     0.333333333333333315     0.554086723984696050
     0.549999999999999933     0.500000000000000000     0.750000000000000000
     0.549999999999999933     0.666666666666666630     0.945913276015304172
     0.549999999999999933     0.833333333333333370     0.972152811494234381
     0.650000000000000022     0.000000000000000000     0.554086723984696050
     0.650000000000000022     0.166666666666666657     0.577606535360005946
     0.650000000000000022     0.333333333333333315     0.629683731504768751
     0.650000000000000022     0.500000000000000000     0.750000000000000000
     0.650000000000000022     0.666666666666666630     0.870316268495231582
     0.650000000000000022     0.833333333333333370     0.922393464639994054
     0.750000000000000000     0.000000000000000000     0.584747107961673729
     0.750000000000000000     0.166666666666666657     0.615202595302611899
     0.750000000000000000     0.333333333333333315     0.668066087509536999
     0.750000000000000000     0.500000000000000000     0.750000000000000000
     0.750000000000000000     0.666666666666666630     0.831933912490463001
     0.750000000000000000     0.833333333333333370     0.884797404697388323
     0.849999999999999978     0.000000000000000000     0.609781100996227732
     0.849999999999999978     0.166666666666666657     0.641826552030606345
     0.849999999999999978     0.333333333333333315     0.688884128682083707
     0.849999999999999978     0.500000000000000000     0.750000000000000000
     0.849999999999999978     0.666666666666666630     0.811115871317916626
     0.849999999999999978     0.833333333333333370     0.858173447969393544
     0.949999999999999956     0.000000000000000000     0.629683731504768751
     0.949999999999999956     0.166666666666666657     0.660691727406284235
     0.949999999999999956     0.333333333333333315     0.701537910174407031
     0.949999999999999956     0.500000000000000000     0.750000000000000000
     0.949999999999999956     0.666666666666666630     0.798462089825593080
     0.949999999999999956     0.833333333333333370     0.839308272593715654
     0.033333333333300005     0.055555555555500007     0.858173447969397762
     0.033333333333300005     0.222222222222166671     0.824436826632350517
     0.033333333333300005     0.388888888888833328     0.781727093497131209
     0.033333333333300005     0.555555555555499958     0.733977274482827347
     0.033333333333300005     0.722222222222166588     0.688884128682101138
     0.033333333333300005     0.888888888888833439     0.652043361992363568
     0.133333333333299997     0.055555555555500007     0.877237412448180653
     0.133333333333299997     0.222222222222166671     0.840927490674440614
     0.133333333333299997     0.388888888888833328     0.790055744740218335
     0.133333333333299997     0.555555555555499958     0.729649897352376620
     0.133333333333299997     0.722222222222166588     0.674402992479948615
     0.133333333333299997     0.888888888888833439     0.633372891605228583
     0.233333333333300003     0.055555555555500007     0.902043361992348913
     0.233333333333300003     0.222222222222166671     0.865202595302619226
     0.233333333333300003     0.388888888888833328     0.804086723984715701
     0.233333333333300003     0.555555555555499958     0.722152811494264579
     0.233333333333300003     0.722222222222166588     0.652043361992375670
     0.233333333333300003     0.888888888888833439     0.608173447969412861
     0.333333333333300008     0.055555555555500007     0.933770455489461804
     0.333333333333300008     0.222222222222166671     0.902043361992348913
     0.333333333333300008     0.388888888888833328     0.831933912490483318
     0.333333333333300008     0.555555555555499958     0.706130085977094368
     0.333333333333300008     0.722222222222166588     0.615202595302647426
     0.333333333333300008     0.888888888888833439     0.574436826632363062
     0.433333333333299986     0.055555555555500007     0.972152811494224167
     0.433333333333299986     0.222222222222166671     0.956130085977032529
     0.433333333333299986     0.388888888888833328     0.902043361992348913
     0.433333333333299986     0.555555555555499958     0.652043361992460047
     0.433333333333299986     0.722222222222166588     0.554086723984733465
     0.433333333333299986     0.888888888888833439     0.531727093497137093
     0.533333333333300019     0.055555555555500007     0.014030979244478603
     0.533333333333300019     0.222222222222166671     0.022359630487552185
     0.533333333333300019     0.388888888888833328     0.054086723984620999
     0.533333333333300019     0.555555555555499958     0.402043361992348747
     0.533333333333300019     0.722222222222166588     0.472152811494254754
     0.533333333333300019     0.888888888888833439     0.483977274482824293
     0.633333333333299997     0.055555555555500007     0.054086723984677176
     0.633333333333299997     0.222222222222166671     0.081933912490431249
     0.633333333333299997     0.388888888888833328     0.152043361992291404
     0.633333333333299997     0.555555555555499958     0.304086723984659302
     0.633333333333299997     0.722222222222166588     0.402043361992348858
     0.633333333333299997     0.888888888888833439     0.438884128682090369
     0.733333333333300086     0.055555555555500007     0.088182895954526108
     0.733333333333300086     0.222222222222166671     0.124196173486554429
     0.733333333333300086     0.388888888888833328     0.188884128682047736
     0.733333333333300086     0.555555555555499958     0.281727093497091297
     0.733333333333300086     0.722222222222166588     0.358173447969385106
     0.733333333333300086     0.888888888888833439     0.402043361992348858
     0.833333333333299953     0.055555555555500007     0.115202595302594135
     0.833333333333299953     0.222222222222166671     0.152043361992324932
     0.833333333333299953     0.388888888888833328     0.206130085977018984
     0.833333333333299953     0.555555555555499958     0.272359630487559234
     0.833333333333299953     0.722222222222166588     0.331933912490452676
     0.833333333333299953     0.888888888888833439     0.374196173486579575
     0.933333333333300041     0.055555555555500007     0.136020636475142176
     0.933333333333300041     0.222222222222166671     0.170713832379466579
     0.933333333333300041     0.388888888888833328     0.215903828030131084
     0.933333333333300041     0.555555555555499958     0.267245957294944991
     0.933333333333300041     0.722222222222166588     0.315321977416315347
     0.933333333333300041     0.888888888888833439     0.353581272166751226
     0.083333333333300008     0.055555555555500007     0.367078167465782146
     0.083333333333300008     0.222222222222166671     0.331933912490471217
     0.083333333333300008     0.388888888888833328     0.285416253597573943
     0.083333333333300008     0.555555555555499958     0.232069915979310482
     0.083333333333300008     0.722222222222166588     0.182363747877736904
     0.083333333333300008     0.888888888888833439     0.143394996578427802
     0.183333333333300014     0.055555555555500007     0.388833831946373110
     0.183333333333300014     0.222222222222166671     0.351836542999011348
     0.183333333333300014     0.388888888888833328     0.296055010496089288
     0.183333333333300014     0.555555555555499958     0.226480188624715195
     0.183333333333300014     0.722222222222166588     0.164522120943244143
     0.183333333333300014     0.888888888888833439     0.121722976106997560
     0.283333333333300019     0.055555555555500007     0.417004409488457295
     0.283333333333300019     0.222222222222166671     0.381693259344707325
     0.283333333333300019     0.388888888888833328     0.315321977416345600
     0.283333333333300019     0.555555555555499958     0.215903828030188372
     0.283333333333300019     0.722222222222166588     0.136020636475189916
     0.283333333333300019     0.888888888888833439     0.092469079989485836
     0.383333333333299942     0.055555555555500007     0.452250180985686256
     0.383333333333299942     0.222222222222166671     0.426849311536514398
     0.383333333333299942     0.388888888888833328     0.358173447969410308
     0.383333333333299942     0.555555555555499958     0.188884128682154540
     0.383333333333299942     0.722222222222166588     0.088182895954583396
     0.383333333333299942     0.888888888888833439     0.054086723984717366
     0.483333333333299975     0.055555555555500007     0.492970852666767101
     0.483333333333299975     0.222222222222166671     0.488764746568351560
     0.483333333333299975     0.388888888888833328     0.472152811494193303
     0.483333333333299975     0.555555555555499958     0.054086723984845930
     0.483333333333299975     0.722222222222166588     0.014030979244525454
     0.483333333333299975     0.888888888888833439     0.008031713488642067
     0.583333333333300064     0.055555555555500007     0.534612406579216826
     0.583333333333300064     0.222222222222166671     0.554086723984666074
     0.583333333333300064     0.388888888888833328     0.615202595302540844
     0.583333333333300064     0.555555555555499958     0.831933912490422034
     0.583333333333300064     0.722222222222166588     0.933770455489475015
     0.583333333333300064     0.888888888888833439     0.960630467711958591
     0.683333333333299930     0.055555555555500007     0.572016808005385125
     0.683333333333299930     0.222222222222166671     0.605212222893326102
     0.683333333333299930     0.388888888888833328     0.674402992479882224
     0.683333333333299930     0.555555555555499958     0.790055744740171040
     0.683333333333299930     0.722222222222166588     0.877237412448172771
     0.683333333333299930     0.888888888888833439     0.919289319287312168
     0.783333333333299908     0.055555555555500007     0.602548813810269701
     0.783333333333299908     0.222222222222166671     0.639564603041451019
     0.783333333333299908     0.388888888888833328     0.698874501091310218
     0.783333333333299908     0.555555555555499958     0.776239535478908005
     0.783333333333299908     0.722222222222166588     0.843456256272738791
     0.783333333333299908     0.888888888888833439     0.887082314496236535
     0.883333333333299886     0.055555555555500007     0.626299593806444621
     0.883333333333299886     0.222222222222166671     0.662260171954067944
     0.883333333333299886     0.388888888888833328     0.711617643995209326
     0.883333333333299886     0.555555555555499958     0.769474317405444364
     0.883333333333299886     0.722222222222166588     0.822757194371824041
     0.883333333333299886     0.888888888888833439     0.863118648860382143
     0.983333333333299975     0.055555555555500007     0.644546276134212004
     0.983333333333299975     0.222222222222166671     0.677787130178216568
     0.983333333333299975     0.388888888888833328     0.719339616023005002
     0.983333333333299975     0.555555555555499958     0.765473754330819101
     0.983333333333299975     0.722222222222166588     0.809200397177305297
     0.983333333333299975     0.888888888888833439     0.845339675287074654
     0.016666666666700001     0.111111111111166685     0.345339675287074543
     0.016666666666700001     0.277777777777833301     0.309200397177305408
     0.016666666666700001     0.444444444444500042     0.265473754330819212
     0.016666666666700001     0.611111111111166672     0.219339616023004780
     0.016666666666700001     0.777777777777833412     0.177787130178216790
     0.016666666666700001     0.944444444444499820     0.144546276134212004
     0.116666666666699989     0.111111111111166685     0.363118648860382143
     0.116666666666699989     0.277777777777833301     0.322757194371824152
     0.116666666666699989     0.444444444444500042     0.269474317405444364
     0.116666666666699989     0.611111111111166672     0.211617643995209770
     0.116666666666699989     0.777777777777833412     0.162260171954068166
     0.116666666666699989     0.944444444444499820     0.126299593806444843
     0.216666666666699981     0.111111111111166685     0.387082314496236535
     0.216666666666699981     0.277777777777833301     0.343456256272738569
     0.216666666666699981     0.444444444444500042     0.276239535478908005
     0.216666666666699981     0.611111111111166672     0.198874501091310218
     0.216666666666699981     0.777777777777833412     0.139564603041451019
     0.216666666666699981     0.944444444444499820     0.102548813810269701
     0.316666666666699959     0.111111111111166685     0.419289319287312168
     0.316666666666699959     0.277777777777833301     0.377237412448172771
     0.316666666666699959     0.444444444444500042     0.290055744740171040
     0.316666666666699959     0.611111111111166672     0.174402992479882446
     0.316666666666699959     0.777777777777833412     0.105212222893326102
     0.316666666666699959     0.944444444444499820     0.072016808005385347
     0.416666666666699992     0.111111111111166685     0.460630467711958813
     0.416666666666699992     0.277777777777833301     0.433770455489475237
     0.416666666666699992     0.444444444444500042     0.331933912490422145
     0.416666666666699992     0.611111111111166672     0.115202595302540622
     0.416666666666699992     0.777777777777833412     0.054086723984665852
     0.416666666666699992     0.944444444444499820     0.034612406579216826
     0.516666666666700025     0.111111111111166685     0.508031713488642067
     0.516666666666700025     0.277777777777833301     0.514030979244525676
     0.516666666666700025     0.444444444444500042     0.554086723984846152
     0.516666666666700025     0.611111111111166672     0.972152811494193414
     0.516666666666700025     0.777777777777833412     0.988764746568351449
     0.516666666666700025     0.944444444444499820     0.992970852666767101
     0.616666666666700003     0.111111111111166685     0.554086723984717366
     0.616666666666700003     0.277777777777833301     0.588182895954583174
     0.616666666666700003     0.444444444444500042     0.688884128682154540
     0.616666666666700003     0.611111111111166672     0.858173447969410086
     0.616666666666700003     0.777777777777833412     0.926849311536514286
     0.616666666666700003     0.944444444444499820     0.952250180985686256
     0.716666666666700092     0.111111111111166685     0.592469079989485836
     0.716666666666700092     0.277777777777833301     0.636020636475190138
     0.716666666666700092     0.444444444444500042     0.715903828030188594
     0.716666666666700092     0.611111111111166672     0.815321977416345600
     0.716666666666700092     0.777777777777833412     0.881693259344707436
     0.716666666666700092     0.944444444444499820     0.917004409488457295
     0.816666666666700070     0.111111111111166685     0.621722976106997560
     0.816666666666700070     0.277777777777833301     0.664522120943244365
     0.816666666666700070     0.444444444444500042     0.726480188624715195
     0.816666666666700070     0.611111111111166672     0.796055010496089177
     0.816666666666700070     0.777777777777833412     0.851836542999011459
     0.816666666666700070     0.944444444444499820     0.888833831946373110
     0.916666666666700047     0.111111111111166685     0.643394996578427802
     0.916666666666700047     0.277777777777833301     0.682363747877737126
     0.916666666666700047     0.444444444444500042     0.732069915979310260
     0.916666666666700047     0.611111111111166672     0.785416253597573721
     0.916666666666700047     0.777777777777833412     0.831933912490471106
     0.916666666666700047     0.944444444444499820     0.867078167465781924
     0.033333333333300005     0.013888888888833332     0.865202595302616784
     0.033333333333300005     0.180555555555499986     0.833748987659091667
     0.033333333333300005     0.347222222222166699     0.793124624507013820
     0.033333333333300005     0.513888888888833328     0.745981584841148515
     0.033333333333300005     0.680555555555499958     0.699513926852752044
     0.033333333333300005     0.847222222222166699     0.660372013235448807
     0.133333333333299997     0.013888888888833332     0.884347247739727615
     0.133333333333299997     0.180555555555499986     0.851315528473531646
     0.133333333333299997     0.347222222222166699     0.804086723984710483
     0.133333333333299997     0.513888888888833328     0.744886326807402521
     0.133333333333299997     0.680555555555499958     0.687008556518940772
     0.133333333333299997     0.847222222222166699     0.642269619939261016
     0.233333333333300003     0.013888888888833332     0.908659521116658153
     0.233333333333300003     0.180555555555499986     0.876299593806467048
     0.233333333333300003     0.347222222222166699     0.822016808005420652
     0.233333333333300003     0.513888888888833328     0.742970852666809400
     0.233333333333300003     0.680555555555499958     0.667004409488487826
     0.233333333333300003     0.847222222222166699     0.617078167465799465
     0.333333333333300008     0.013888888888833332     0.938884128682079822
     0.333333333333300008     0.180555555555499986     0.912260171954087928
     0.333333333333300008     0.347222222222166699     0.855212222893369733
     0.333333333333300008     0.513888888888833328     0.738764746568418618
     0.333333333333300008     0.680555555555499958     0.631693259344742408
     0.333333333333300008     0.847222222222166699     0.581933912490486205
     0.433333333333299986     0.013888888888833332     0.974497215654608895
     0.433333333333299986     0.180555555555499986     0.961617643995219873
     0.433333333333299986     0.347222222222166699     0.924402992479918861
     0.433333333333299986     0.513888888888833328     0.722152811494356728
     0.433333333333299986     0.680555555555499958     0.565321977416371468
     0.433333333333299986     0.847222222222166699     0.535416253597581382
     0.533333333333300019     0.013888888888833332     0.012833772682299127