system
 1.0000000
     -1.778000000000      1.778000000000     -3.556000000000
     -3.556000000000      3.556000000000      3.556000000000
      1.778000000000      1.778000000000      0.000000000000
C  
 12
Direct
      0.666666666667      0.666666666667      0.250000000000
      0.000000000000      0.000000000000      0.250000000000
      0.500000000000      0.000000000000      0.750000000000
      0.333333333333      0.333333333333      0.250000000000
      0.833333333333      0.333333333333      0.750000000000
      0.166666666667      0.666666666667      0.750000000000
      0.333333333333      0.083333333333      0.250000000000
      0.500000000000      0.750000000000      0.750000000000
      0.666666666667      0.416666666667      0.250000000000
      0.000000000000      0.750000000000      0.250000000000
      0.833333333333      0.083333333333      0.750000000000
      0.166666666667      0.416666666667      0.750000000000
