system
 1.0000000
     43.551927626685      0.000000000000      0.000000000000
      0.000000000000     36.955036030290      0.000000000000
      0.000000000000      0.000000000000      2.514471713899
C  
720
Direct
     0.066666666666700000     0.111111111111166672     0.250000000000000000
     0.066666666666700000     0.277777777777833301     0.250000000000000000
     0.066666666666700000     0.444444444444499986     0.250000000000000000
     0.066666666666700000     0.611111111111166672     0.250000000000000000
     0.066666666666700000     0.777777777777833301     0.250000000000000000
     0.066666666666700000     0.944444444444499931     0.250000000000000000
     0.166666666666700020     0.111111111111166672     0.250000000000000000
     0.166666666666700020     0.277777777777833301     0.250000000000000000
     0.166666666666700020     0.444444444444499986     0.250000000000000000
     0.166666666666700020     0.611111111111166672     0.250000000000000000
     0.166666666666700020     0.777777777777833301     0.250000000000000000
     0.166666666666700020     0.944444444444499931     0.250000000000000000
     0.266666666666700025     0.111111111111166672     0.250000000000000000
     0.266666666666700025     0.277777777777833301     0.250000000000000000
     0.266666666666700025     0.444444444444499986     0.250000000000000000
     0.266666666666700025     0.611111111111166672     0.250000000000000000
     0.266666666666700025     0.777777777777833301     0.250000000000000000
     0.266666666666700025     0.944444444444499931     0.250000000000000000
     0.366666666666700003     0.111111111111166672     0.250000000000000000
     0.366666666666700003     0.277777777777833301     0.250000000000000000
     0.366666666666700003     0.444444444444499986     0.250000000000000000
     0.366666666666700003     0.611111111111166672     0.250000000000000000
     0.366666666666700003     0.777777777777833301     0.250000000000000000
     0.366666666666700003     0.944444444444499931     0.250000000000000000
     0.466666666666700036     0.111111111111166672     0.250000000000000000
     0.466666666666700036     0.277777777777833301     0.250000000000000000
     0.466666666666700036     0.444444444444499986     0.250000000000000000
     0.466666666666700036     0.611111111111166672     0.250000000000000000
     0.466666666666700036     0.777777777777833301     0.250000000000000000
     0.466666666666700036     0.944444444444499931     0.250000000000000000
     0.566666666666700070     0.111111111111166672     0.250000000000000000
     0.566666666666700070     0.277777777777833301     0.250000000000000000
     0.566666666666700070     0.444444444444499986     0.250000000000000000
     0.566666666666700070     0.611111111111166672     0.250000000000000000
     0.566666666666700070     0.777777777777833301     0.250000000000000000
     0.566666666666700070     0.944444444444499931     0.250000000000000000
     0.666666666666700047     0.111111111111166672     0.250000000000000000
     0.666666666666700047     0.277777777777833301     0.250000000000000000
     0.666666666666700047     0.444444444444499986     0.250000000000000000
     0.666666666666700047     0.611111111111166672     0.250000000000000000
     0.666666666666700047     0.777777777777833301     0.250000000000000000
     0.666666666666700047     0.944444444444499931     0.250000000000000000
     0.766666666666700025     0.111111111111166672     0.250000000000000000
     0.766666666666700025     0.277777777777833301     0.250000000000000000
     0.766666666666700025     0.444444444444499986     0.250000000000000000
     0.766666666666700025     0.611111111111166672     0.250000000000000000
     0.766666666666700025     0.777777777777833301     0.250000000000000000
     0.766666666666700025     0.944444444444499931     0.250000000000000000
     0.866666666666700003     0.111111111111166672     0.250000000000000000
     0.866666666666700003     0.277777777777833301     0.250000000000000000
     0.866666666666700003     0.444444444444499986     0.250000000000000000
     0.866666666666700003     0.611111111111166672     0.250000000000000000
     0.866666666666700003     0.777777777777833301     0.250000000000000000
     0.866666666666700003     0.944444444444499931     0.250000000000000000
     0.966666666666700092     0.111111111111166672     0.250000000000000000
     0.966666666666700092     0.277777777777833301     0.250000000000000000
     0.966666666666700092     0.444444444444499986     0.250000000000000000
     0.966666666666700092     0.611111111111166672     0.250000000000000000
     0.966666666666700092     0.777777777777833301     0.250000000000000000
     0.966666666666700092     0.944444444444499931     0.250000000000000000
     0.000000000000000000     0.000000000000000000     0.250000000000000000
     0.000000000000000000     0.166666666666666657     0.250000000000000000
     0.000000000000000000     0.333333333333333315     0.250000000000000000
     0.000000000000000000     0.500000000000000000     0.250000000000000000
     0.000000000000000000     0.666666666666666630     0.250000000000000000
     0.000000000000000000     0.833333333333333259     0.250000000000000000
     0.100000000000000006     0.000000000000000000     0.250000000000000000
     0.100000000000000006     0.166666666666666657     0.250000000000000000
     0.100000000000000006     0.333333333333333315     0.250000000000000000
     0.100000000000000006     0.500000000000000000     0.250000000000000000
     0.100000000000000006     0.666666666666666630     0.250000000000000000
     0.100000000000000006     0.833333333333333259     0.250000000000000000
     0.200000000000000011     0.000000000000000000     0.250000000000000000
     0.200000000000000011     0.166666666666666657     0.250000000000000000
     0.200000000000000011     0.333333333333333315     0.250000000000000000
     0.200000000000000011     0.500000000000000000     0.250000000000000000
     0.200000000000000011     0.666666666666666630     0.250000000000000000
     0.200000000000000011     0.833333333333333259     0.250000000000000000
     0.300000000000000044     0.000000000000000000     0.250000000000000000
     0.300000000000000044     0.166666666666666657     0.250000000000000000
     0.300000000000000044     0.333333333333333315     0.250000000000000000
     0.300000000000000044     0.500000000000000000     0.250000000000000000
     0.300000000000000044     0.666666666666666630     0.250000000000000000
     0.300000000000000044     0.833333333333333259     0.250000000000000000
     0.400000000000000022     0.000000000000000000     0.250000000000000000
     0.400000000000000022     0.166666666666666657     0.250000000000000000
     0.400000000000000022     0.333333333333333315     0.250000000000000000
     0.400000000000000022     0.500000000000000000     0.250000000000000000
     0.400000000000000022     0.666666666666666630     0.250000000000000000
     0.400000000000000022     0.833333333333333259     0.250000000000000000
     0.500000000000000000     0.000000000000000000     0.250000000000000000
     0.500000000000000000     0.166666666666666657     0.250000000000000000
     0.500000000000000000     0.333333333333333315     0.250000000000000000
     0.500000000000000000     0.500000000000000000     0.250000000000000000
     0.500000000000000000     0.666666666666666630     0.250000000000000000
     0.500000000000000000     0.833333333333333259     0.250000000000000000
     0.600000000000000089     0.000000000000000000     0.250000000000000000
     0.600000000000000089     0.166666666666666657     0.250000000000000000
     0.600000000000000089     0.333333333333333315     0.250000000000000000
     0.600000000000000089     0.500000000000000000     0.250000000000000000
     0.600000000000000089     0.666666666666666630     0.250000000000000000
     0.600000000000000089     0.833333333333333259     0.250000000000000000
     0.700000000000000067     0.000000000000000000     0.250000000000000000
     0.700000000000000067     0.166666666666666657     0.250000000000000000
     0.700000000000000067     0.333333333333333315     0.250000000000000000
     0.700000000000000067     0.500000000000000000     0.250000000000000000
     0.700000000000000067     0.666666666666666630     0.250000000000000000
     0.700000000000000067     0.833333333333333259     0.250000000000000000
     0.800000000000000044     0.000000000000000000     0.250000000000000000
     0.800000000000000044     0.166666666666666657     0.250000000000000000
     0.800000000000000044     0.333333333333333315     0.250000000000000000
     0.800000000000000044     0.500000000000000000     0.250000000000000000
     0.800000000000000044     0.666666666666666630     0.250000000000000000
     0.800000000000000044     0.833333333333333259     0.250000000000000000
     0.900000000000000022     0.000000000000000000     0.250000000000000000
     0.900000000000000022     0.166666666666666657     0.250000000000000000
     0.900000000000000022     0.333333333333333315     0.250000000000000000
     0.900000000000000022     0.500000000000000000     0.250000000000000000
     0.900000000000000022     0.666666666666666630     0.250000000000000000
     0.900000000000000022     0.833333333333333259     0.250000000000000000
     0.050000000000000003     0.000000000000000000     0.750000000000000000
     0.050000000000000003     0.166666666666666657     0.750000000000000000
     0.050000000000000003     0.333333333333333315     0.750000000000000000
     0.050000000000000003     0.500000000000000000     0.750000000000000000
     0.050000000000000003     0.666666666666666630     0.750000000000000000
     0.050000000000000003     0.833333333333333259     0.750000000000000000
     0.150000000000000022     0.000000000000000000     0.750000000000000000
     0.150000000000000022     0.166666666666666657     0.750000000000000000
     0.150000000000000022     0.333333333333333315     0.750000000000000000
     0.150000000000000022     0.500000000000000000     0.750000000000000000
     0.150000000000000022     0.666666666666666630     0.750000000000000000
     0.150000000000000022     0.833333333333333259     0.750000000000000000
     0.250000000000000000     0.000000000000000000     0.750000000000000000
     0.250000000000000000     0.166666666666666657     0.750000000000000000
     0.250000000000000000     0.333333333333333315     0.750000000000000000
     0.250000000000000000     0.500000000000000000     0.750000000000000000
     0.250000000000000000     0.666666666666666630     0.750000000000000000
     0.250000000000000000     0.833333333333333259     0.750000000000000000
     0.350000000000000033     0.000000000000000000     0.750000000000000000
     0.350000000000000033     0.166666666666666657     0.750000000000000000
     0.350000000000000033     0.333333333333333315     0.750000000000000000
     0.350000000000000033     0.500000000000000000     0.750000000000000000
     0.350000000000000033     0.666666666666666630     0.750000000000000000
     0.350000000000000033     0.833333333333333259     0.750000000000000000
     0.450000000000000011     0.000000000000000000     0.750000000000000000
     0.450000000000000011     0.166666666666666657     0.750000000000000000
     0.450000000000000011     0.333333333333333315     0.750000000000000000
     0.450000000000000011     0.500000000000000000     0.750000000000000000
     0.450000000000000011     0.666666666666666630     0.750000000000000000
     0.450000000000000011     0.833333333333333259     0.750000000000000000
     0.550000000000000044     0.000000000000000000     0.750000000000000000
     0.550000000000000044     0.166666666666666657     0.750000000000000000
     0.550000000000000044     0.333333333333333315     0.750000000000000000
     0.550000000000000044     0.500000000000000000     0.750000000000000000
     0.550000000000000044     0.666666666666666630     0.750000000000000000
     0.550000000000000044     0.833333333333333259     0.750000000000000000
     0.650000000000000022     0.000000000000000000     0.750000000000000000
     0.650000000000000022     0.166666666666666657     0.750000000000000000
     0.650000000000000022     0.333333333333333315     0.750000000000000000
     0.650000000000000022     0.500000000000000000     0.750000000000000000
     0.650000000000000022     0.666666666666666630     0.750000000000000000
     0.650000000000000022     0.833333333333333259     0.750000000000000000
     0.750000000000000000     0.000000000000000000     0.750000000000000000
     0.750000000000000000     0.166666666666666657     0.750000000000000000
     0.750000000000000000     0.333333333333333315     0.750000000000000000
     0.750000000000000000     0.500000000000000000     0.750000000000000000
     0.750000000000000000     0.666666666666666630     0.750000000000000000
     0.750000000000000000     0.833333333333333259     0.750000000000000000
     0.850000000000000089     0.000000000000000000     0.750000000000000000
     0.850000000000000089     0.166666666666666657     0.750000000000000000
     0.850000000000000089     0.333333333333333315     0.750000000000000000
     0.850000000000000089     0.500000000000000000     0.750000000000000000
     0.850000000000000089     0.666666666666666630     0.750000000000000000
     0.850000000000000089     0.833333333333333259     0.750000000000000000
     0.950000000000000067     0.000000000000000000     0.750000000000000000
     0.950000000000000067     0.166666666666666657     0.750000000000000000
     0.950000000000000067     0.333333333333333315     0.750000000000000000
     0.950000000000000067     0.500000000000000000     0.750000000000000000
     0.950000000000000067     0.666666666666666630     0.750000000000000000
     0.950000000000000067     0.833333333333333259     0.750000000000000000
     0.033333333333300005     0.055555555555500000     0.250000000000000000
     0.033333333333300005     0.222222222222166643     0.250000000000000000
     0.033333333333300005     0.388888888888833328     0.250000000000000000
     0.033333333333300005     0.555555555555499958     0.250000000000000000
     0.033333333333300005     0.722222222222166588     0.250000000000000000
     0.033333333333300005     0.888888888888833328     0.250000000000000000
     0.133333333333299997     0.055555555555500000     0.250000000000000000
     0.133333333333299997     0.222222222222166643     0.250000000000000000
     0.133333333333299997     0.388888888888833328     0.250000000000000000
     0.133333333333299997     0.555555555555499958     0.250000000000000000
     0.133333333333299997     0.722222222222166588     0.250000000000000000
     0.133333333333299997     0.888888888888833328     0.250000000000000000
     0.233333333333300003     0.055555555555500000     0.250000000000000000
     0.233333333333300003     0.222222222222166643     0.250000000000000000
     0.233333333333300003     0.388888888888833328     0.250000000000000000
     0.233333333333300003     0.555555555555499958     0.250000000000000000
     0.233333333333300003     0.722222222222166588     0.250000000000000000
     0.233333333333300003     0.888888888888833328     0.250000000000000000
     0.333333333333300008     0.055555555555500000     0.250000000000000000
     0.333333333333300008     0.222222222222166643     0.250000000000000000
     0.333333333333300008     0.388888888888833328     0.250000000000000000
     0.333333333333300008     0.555555555555499958     0.250000000000000000
     0.333333333333300008     0.722222222222166588     0.250000000000000000
     0.333333333333300008     0.888888888888833328     0.250000000000000000
     0.433333333333300041     0.055555555555500000     0.250000000000000000
     0.433333333333300041     0.222222222222166643     0.250000000000000000
     0.433333333333300041     0.388888888888833328     0.250000000000000000
     0.433333333333300041     0.555555555555499958     0.250000000000000000
     0.433333333333300041     0.722222222222166588     0.250000000000000000
     0.433333333333300041     0.888888888888833328     0.250000000000000000
     0.533333333333300019     0.055555555555500000     0.250000000000000000
     0.533333333333300019     0.222222222222166643     0.250000000000000000
     0.533333333333300019     0.388888888888833328     0.250000000000000000
     0.533333333333300019     0.555555555555499958     0.250000000000000000
     0.533333333333300019     0.722222222222166588     0.250000000000000000
     0.533333333333300019     0.888888888888833328     0.250000000000000000
     0.633333333333299997     0.055555555555500000     0.250000000000000000
     0.633333333333299997     0.222222222222166643     0.250000000000000000
     0.633333333333299997     0.388888888888833328     0.250000000000000000
     0.633333333333299997     0.555555555555499958     0.250000000000000000
     0.633333333333299997     0.722222222222166588     0.250000000000000000
     0.633333333333299997     0.888888888888833328     0.250000000000000000
     0.733333333333300086     0.055555555555500000     0.250000000000000000
     0.733333333333300086     0.222222222222166643     0.250000000000000000
     0.733333333333300086     0.388888888888833328     0.250000000000000000
     0.733333333333300086     0.555555555555499958     0.250000000000000000
     0.733333333333300086     0.722222222222166588     0.250000000000000000
     0.733333333333300086     0.888888888888833328     0.250000000000000000
     0.833333333333300064     0.055555555555500000     0.250000000000000000
     0.833333333333300064     0.222222222222166643     0.250000000000000000
     0.833333333333300064     0.388888888888833328     0.250000000000000000
     0.833333333333300064     0.555555555555499958     0.250000000000000000
     0.833333333333300064     0.722222222222166588     0.250000000000000000
     0.833333333333300064     0.888888888888833328     0.250000000000000000
     0.933333333333300041     0.055555555555500000     0.250000000000000000
     0.933333333333300041     0.222222222222166643     0.250000000000000000
     0.933333333333300041     0.388888888888833328     0.250000000000000000
     0.933333333333300041     0.555555555555499958     0.250000000000000000
     0.933333333333300041     0.722222222222166588     0.250000000000000000
     0.933333333333300041     0.888888888888833328     0.250000000000000000
     0.083333333333300008     0.055555555555500000     0.750000000000000000
     0.083333333333300008     0.222222222222166643     0.750000000000000000
     0.083333333333300008     0.388888888888833328     0.750000000000000000
     0.083333333333300008     0.555555555555499958     0.750000000000000000
     0.083333333333300008     0.722222222222166588     0.750000000000000000
     0.083333333333300008     0.888888888888833328     0.750000000000000000
     0.183333333333300014     0.055555555555500000     0.750000000000000000
     0.183333333333300014     0.222222222222166643     0.750000000000000000
     0.183333333333300014     0.388888888888833328     0.750000000000000000
     0.183333333333300014     0.555555555555499958     0.750000000000000000
     0.183333333333300014     0.722222222222166588     0.750000000000000000
     0.183333333333300014     0.888888888888833328     0.750000000000000000
     0.283333333333300019     0.055555555555500000     0.750000000000000000
     0.283333333333300019     0.222222222222166643     0.750000000000000000
     0.283333333333300019     0.388888888888833328     0.750000000000000000
     0.283333333333300019     0.555555555555499958     0.750000000000000000
     0.283333333333300019     0.722222222222166588     0.750000000000000000
     0.283333333333300019     0.888888888888833328     0.750000000000000000
     0.383333333333299997     0.055555555555500000     0.750000000000000000
     0.383333333333299997     0.222222222222166643     0.750000000000000000
     0.383333333333299997     0.388888888888833328     0.750000000000000000
     0.383333333333299997     0.555555555555499958     0.750000000000000000
     0.383333333333299997     0.722222222222166588     0.750000000000000000
     0.383333333333299997     0.888888888888833328     0.750000000000000000
     0.483333333333300030     0.055555555555500000     0.750000000000000000
     0.483333333333300030     0.222222222222166643     0.750000000000000000
     0.483333333333300030     0.388888888888833328     0.750000000000000000
     0.483333333333300030     0.555555555555499958     0.750000000000000000
     0.483333333333300030     0.722222222222166588     0.750000000000000000
     0.483333333333300030     0.888888888888833328     0.750000000000000000
     0.583333333333300064     0.055555555555500000     0.750000000000000000
     0.583333333333300064     0.222222222222166643     0.750000000000000000
     0.583333333333300064     0.388888888888833328     0.750000000000000000
     0.583333333333300064     0.555555555555499958     0.750000000000000000
     0.583333333333300064     0.722222222222166588     0.750000000000000000
     0.583333333333300064     0.888888888888833328     0.750000000000000000
     0.683333333333300041     0.055555555555500000     0.750000000000000000
     0.683333333333300041     0.222222222222166643     0.750000000000000000
     0.683333333333300041     0.388888888888833328     0.750000000000000000
     0.683333333333300041     0.555555555555499958     0.750000000000000000
     0.683333333333300041     0.722222222222166588     0.750000000000000000
     0.683333333333300041     0.888888888888833328     0.750000000000000000
     0.783333333333300019     0.055555555555500000     0.750000000000000000
     0.783333333333300019     0.222222222222166643     0.750000000000000000
     0.783333333333300019     0.388888888888833328     0.750000000000000000
     0.783333333333300019     0.555555555555499958     0.750000000000000000
     0.783333333333300019     0.722222222222166588     0.750000000000000000
     0.783333333333300019     0.888888888888833328     0.750000000000000000
     0.883333333333299997     0.055555555555500000     0.750000000000000000
     0.883333333333299997     0.222222222222166643     0.750000000000000000
     0.883333333333299997     0.388888888888833328     0.750000000000000000
     0.883333333333299997     0.555555555555499958     0.750000000000000000
     0.883333333333299997     0.722222222222166588     0.750000000000000000
     0.883333333333299997     0.888888888888833328     0.750000000000000000
     0.983333333333300086     0.055555555555500000     0.750000000000000000
     0.983333333333300086     0.222222222222166643     0.750000000000000000
     0.983333333333300086     0.388888888888833328     0.750000000000000000
     0.983333333333300086     0.555555555555499958     0.750000000000000000
     0.983333333333300086     0.722222222222166588     0.750000000000000000
     0.983333333333300086     0.888888888888833328     0.750000000000000000
     0.016666666666700001     0.111111111111166672     0.750000000000000000
     0.016666666666700001     0.277777777777833301     0.750000000000000000
     0.016666666666700001     0.444444444444499986     0.750000000000000000
     0.016666666666700001     0.611111111111166672     0.750000000000000000
     0.016666666666700001     0.777777777777833301     0.750000000000000000
     0.016666666666700001     0.944444444444499931     0.750000000000000000
     0.116666666666700003     0.111111111111166672     0.750000000000000000
     0.116666666666700003     0.277777777777833301     0.750000000000000000
     0.116666666666700003     0.444444444444499986     0.750000000000000000
     0.116666666666700003     0.611111111111166672     0.750000000000000000
     0.116666666666700003     0.777777777777833301     0.750000000000000000
     0.116666666666700003     0.944444444444499931     0.750000000000000000
     0.216666666666700009     0.111111111111166672     0.750000000000000000
     0.216666666666700009     0.277777777777833301     0.750000000000000000
     0.216666666666700009     0.444444444444499986     0.750000000000000000
     0.216666666666700009     0.611111111111166672     0.750000000000000000
     0.216666666666700009     0.777777777777833301     0.750000000000000000
     0.216666666666700009     0.944444444444499931     0.750000000000000000
     0.316666666666700014     0.111111111111166672     0.750000000000000000
     0.316666666666700014     0.277777777777833301     0.750000000000000000
     0.316666666666700014     0.444444444444499986     0.750000000000000000
     0.316666666666700014     0.611111111111166672     0.750000000000000000
     0.316666666666700014     0.777777777777833301     0.750000000000000000
     0.316666666666700014     0.944444444444499931     0.750000000000000000
     0.416666666666700047     0.111111111111166672     0.750000000000000000
     0.416666666666700047     0.277777777777833301     0.750000000000000000
     0.416666666666700047     0.444444444444499986     0.750000000000000000
     0.416666666666700047     0.611111111111166672     0.750000000000000000
     0.416666666666700047     0.777777777777833301     0.750000000000000000
     0.416666666666700047     0.944444444444499931     0.750000000000000000
     0.516666666666700025     0.111111111111166672     0.750000000000000000
     0.516666666666700025     0.277777777777833301     0.750000000000000000
     0.516666666666700025     0.444444444444499986     0.750000000000000000
     0.516666666666700025     0.611111111111166672     0.750000000000000000
     0.516666666666700025     0.777777777777833301     0.750000000000000000
     0.516666666666700025     0.944444444444499931     0.750000000000000000
     0.616666666666700003     0.111111111111166672     0.750000000000000000
     0.616666666666700003     0.277777777777833301     0.750000000000000000
     0.616666666666700003     0.444444444444499986     0.750000000000000000
     0.616666666666700003     0.611111111111166672     0.750000000000000000
     0.616666666666700003     0.777777777777833301     0.750000000000000000
     0.616666666666700003     0.944444444444499931     0.750000000000000000
     0.716666666666700092     0.111111111111166672     0.750000000000000000
     0.716666666666700092     0.277777777777833301     0.750000000000000000
     0.716666666666700092     0.444444444444499986     0.750000000000000000
     0.716666666666700092     0.611111111111166672     0.750000000000000000
     0.716666666666700092     0.777777777777833301     0.750000000000000000
     0.716666666666700092     0.944444444444499931     0.750000000000000000
     0.816666666666700070     0.111111111111166672     0.750000000000000000
     0.816666666666700070     0.277777777777833301     0.750000000000000000
     0.816666666666700070     0.444444444444499986     0.750000000000000000
     0.816666666666700070     0.611111111111166672     0.750000000000000000
     0.816666666666700070     0.777777777777833301     0.750000000000000000
     0.816666666666700070     0.944444444444499931     0.750000000000000000
     0.916666666666700047     0.111111111111166672     0.750000000000000000
     0.916666666666700047     0.277777777777833301     0.750000000000000000
     0.916666666666700047     0.444444444444499986     0.750000000000000000
     0.916666666666700047     0.611111111111166672     0.750000000000000000
     0.916666666666700047     0.777777777777833301     0.750000000000000000
     0.916666666666700047     0.944444444444499931     0.750000000000000000
     0.033333333333300005     0.013888888888833332     0.250000000000000000
     0.033333333333300005     0.180555555555499986     0.250000000000000000
     0.033333333333300005     0.347222222222166643     0.250000000000000000
     0.033333333333300005     0.513888888888833328     0.250000000000000000
     0.033333333333300005     0.680555555555499958     0.250000000000000000
     0.033333333333300005     0.847222222222166588     0.250000000000000000
     0.133333333333299997     0.013888888888833332     0.250000000000000000
     0.133333333333299997     0.180555555555499986     0.250000000000000000
     0.133333333333299997     0.347222222222166643     0.250000000000000000
     0.133333333333299997     0.513888888888833328     0.250000000000000000
     0.133333333333299997     0.680555555555499958     0.250000000000000000
     0.133333333333299997     0.847222222222166588     0.250000000000000000
     0.233333333333300003     0.013888888888833332     0.250000000000000000
     0.233333333333300003     0.180555555555499986     0.250000000000000000
     0.233333333333300003     0.347222222222166643     0.250000000000000000
     0.233333333333300003     0.513888888888833328     0.250000000000000000
     0.233333333333300003     0.680555555555499958     0.250000000000000000
     0.233333333333300003     0.847222222222166588     0.250000000000000000
     0.333333333333300008     0.013888888888833332     0.250000000000000000
     0.333333333333300008     0.180555555555499986     0.250000000000000000
     0.333333333333300008     0.347222222222166643     0.250000000000000000
     0.333333333333300008     0.513888888888833328     0.250000000000000000
     0.333333333333300008     0.680555555555499958     0.250000000000000000
     0.333333333333300008     0.847222222222166588     0.250000000000000000
     0.433333333333300041     0.013888888888833332     0.250000000000000000
     0.433333333333300041     0.180555555555499986     0.250000000000000000
     0.433333333333300041     0.347222222222166643     0.250000000000000000
     0.433333333333300041     0.513888888888833328     0.250000000000000000
     0.433333333333300041     0.680555555555499958     0.250000000000000000
     0.433333333333300041     0.847222222222166588     0.250000000000000000
     0.533333333333300019     0.013888888888833332     0.250000000000000000